
     Program PWSCF v.7.5 starts on  6Sep2026 at 11:44:44 
        Git branch: develop
        Last git commit: 3c11e307ebcb4724b3e63ad706b3e9727dda56b0
        Last git commit date: Wed Jul 2 15:08:17 2025 +0000
        Last git commit subject: Merge branch 'a-few-qe-75-chores' into 'develop'

     This program is part of the open-source Quantum ESPRESSO suite
     for quantum simulation of materials; please cite
         "P. Giannozzi et al., J. Phys.:Condens. Matter 21 395502 (2009);
         "P. Giannozzi et al., J. Phys.:Condens. Matter 29 465901 (2017);
         "P. Giannozzi et al., J. Chem. Phys. 152 154105 (2020);
          URL http://www.quantum-espresso.org", 
     in publications or presentations arising from this work. More details at
     http://www.quantum-espresso.org/quote

     Parallel version (MPI), running on   240 processors

     MPI processes distributed on     5 nodes
     176110 MiB available memory on the printing compute node when the environment starts
 
     Waiting for input...
     Reading input from standard input

     Current dimensions of program PWSCF are:
     Max number of different atomic species (ntypx) = 10
     Max number of k-points (npk) =  40000
     Max angular momentum in pseudopotentials (lmaxx) =  4

     File ./pwscf.update deleted, as requested

     File ./pwscf.bfgs deleted, as requested
     Found identity + ( -0.0000 -0.0000  0.5000) symmetry
     This is a supercell, fractional translations are disabled
     Message from routine setup:
     using ibrav=0 with symmetry is DISCOURAGED, use correct ibrav instead
 
     K-points division:     npool     =       3
     R & G space division:  proc/nbgrp/npool/nimage =      80
     Subspace diagonalization in iterative solution of the eigenvalue problem:
     one sub-group per band group will be used
     custom distributed-memory algorithm (size of sub-group:  6*  6 procs)

 
     Parallelization info
     --------------------
     sticks:   dense  smooth     PW     G-vecs:    dense   smooth      PW
     Min         375     375     96                55452    55452    7232
     Max         377     377     97                55456    55456    7239
     Sum       30067   30067   7741              4436351  4436351  578813
 
     Using Slab Decomposition
 


     bravais-lattice index     =            0
     lattice parameter (alat)  =      26.1026  a.u.
     unit-cell volume          =   16227.2898 (a.u.)^3
     number of atoms/cell      =           90
     number of atomic types    =            2
     number of electrons       =      1080.00
     number of Kohn-Sham states=          648
     kinetic-energy cutoff     =     160.0000  Ry
     charge density cutoff     =     640.0000  Ry
     scf convergence threshold =      1.0E-08
     mixing beta               =       0.3000
     number of iterations used =            8  plain     mixing
     energy convergence thresh.=      1.0E-06
     force convergence thresh. =      1.0E-04
     Exchange-correlation= SLA  PW   NOGX NOGC
                           (   1   4   0   0   0   0   0)
     nstep                     =           50


     celldm(1)=  26.102601  celldm(2)=   0.000000  celldm(3)=   0.000000
     celldm(4)=   0.000000  celldm(5)=   0.000000  celldm(6)=   0.000000

     crystal axes: (cart. coord. in units of alat)
               a(1) = (   1.000000  -0.000000   0.000000 )  
               a(2) = (  -0.500000   0.866025  -0.000000 )  
               a(3) = (   0.000000   0.000000   1.053571 )  

     reciprocal axes: (cart. coord. in units 2 pi/alat)
               b(1) = (  1.000000  0.577350 -0.000000 )  
               b(2) = (  0.000000  1.154701 -0.000000 )  
               b(3) = (  0.000000  0.000000  0.949153 )  


     PseudoPot. # 1 for Mg read from file:
     /home/IITB/multiscale-mechanics/amit.k.singh/PP/LDA_ONCV/Mg.UPF
     MD5 check sum: b625b74613aebb94f78e131e92efc946
     Pseudo is Norm-conserving, Zval = 10.0
     Generated using ONCVPSP code by D. R. Hamann
     Using radial grid of 1510 points,  4 beta functions with: 
                l(1) =   0
                l(2) =   0
                l(3) =   1
                l(4) =   1

     PseudoPot. # 2 for Bi read from file:
     /home/IITB/multiscale-mechanics/amit.k.singh/PP/LDA_ONCV/Bi.UPF
     MD5 check sum: 56dda99c34bc3f5cc94f668e0bde5a74
     Pseudo is Norm-conserving + core correction, Zval = 15.0
     Generated using ONCVPSP code by D. R. Hamann
     Using radial grid of 1454 points,  6 beta functions with: 
                l(1) =   0
                l(2) =   0
                l(3) =   1
                l(4) =   1
                l(5) =   2
                l(6) =   2

     atomic species   valence    mass     pseudopotential
     Mg               10.00    24.30500     Mg( 1.00)
     Bi               15.00   208.98040     Bi( 1.00)

     12 Sym. Ops., with inversion, found


                                    s                        frac. trans.

      isym =  1     identity                                     

 cryst.   s( 1) = (     1          0          0      )
                  (     0          1          0      )
                  (     0          0          1      )

 cart.    s( 1) = (  1.0000000 -0.0000000  0.0000000 )
                  (  0.0000000  1.0000000  0.0000000 )
                  (  0.0000000  0.0000000  1.0000000 )


      isym =  2     180 deg rotation - cart. axis [1,0,0]        

 cryst.   s( 2) = (     1          0          0      )
                  (    -1         -1          0      )
                  (     0          0         -1      )

 cart.    s( 2) = (  1.0000000  0.0000000  0.0000000 )
                  (  0.0000000 -1.0000000  0.0000000 )
                  (  0.0000000  0.0000000 -1.0000000 )


      isym =  3     120 deg rotation - cryst. axis [0,0,1]       

 cryst.   s( 3) = (     0          1          0      )
                  (    -1         -1          0      )
                  (     0          0          1      )

 cart.    s( 3) = ( -0.5000000 -0.8660254  0.0000000 )
                  (  0.8660254 -0.5000000  0.0000000 )
                  (  0.0000000  0.0000000  1.0000000 )


      isym =  4     120 deg rotation - cryst. axis [0,0,-1]      

 cryst.   s( 4) = (    -1         -1          0      )
                  (     1          0          0      )
                  (     0          0          1      )

 cart.    s( 4) = ( -0.5000000  0.8660254  0.0000000 )
                  ( -0.8660254 -0.5000000  0.0000000 )
                  (  0.0000000  0.0000000  1.0000000 )


      isym =  5     180 deg rotation - cryst. axis [0,1,0]       

 cryst.   s( 5) = (    -1         -1          0      )
                  (     0          1          0      )
                  (     0          0         -1      )

 cart.    s( 5) = ( -0.5000000 -0.8660254  0.0000000 )
                  ( -0.8660254  0.5000000  0.0000000 )
                  (  0.0000000  0.0000000 -1.0000000 )


      isym =  6     180 deg rotation - cryst. axis [1,1,0]       

 cryst.   s( 6) = (     0          1          0      )
                  (     1          0          0      )
                  (     0          0         -1      )

 cart.    s( 6) = ( -0.5000000  0.8660254  0.0000000 )
                  (  0.8660254  0.5000000  0.0000000 )
                  (  0.0000000  0.0000000 -1.0000000 )


      isym =  7     inversion                                    

 cryst.   s( 7) = (    -1          0          0      )
                  (     0         -1          0      )
                  (     0          0         -1      )

 cart.    s( 7) = ( -1.0000000  0.0000000  0.0000000 )
                  (  0.0000000 -1.0000000  0.0000000 )
                  (  0.0000000  0.0000000 -1.0000000 )


      isym =  8     inv. 180 deg rotation - cart. axis [1,0,0]   

 cryst.   s( 8) = (    -1          0          0      )
                  (     1          1          0      )
                  (     0          0          1      )

 cart.    s( 8) = ( -1.0000000 -0.0000000  0.0000000 )
                  (  0.0000000  1.0000000  0.0000000 )
                  (  0.0000000  0.0000000  1.0000000 )


      isym =  9     inv. 120 deg rotation - cryst. axis [0,0,1]  

 cryst.   s( 9) = (     0         -1          0      )
                  (     1          1          0      )
                  (     0          0         -1      )

 cart.    s( 9) = (  0.5000000  0.8660254  0.0000000 )
                  ( -0.8660254  0.5000000  0.0000000 )
                  (  0.0000000  0.0000000 -1.0000000 )


      isym = 10     inv. 120 deg rotation - cryst. axis [0,0,-1] 

 cryst.   s(10) = (     1          1          0      )
                  (    -1          0          0      )
                  (     0          0         -1      )

 cart.    s(10) = (  0.5000000 -0.8660254  0.0000000 )
                  (  0.8660254  0.5000000  0.0000000 )
                  (  0.0000000  0.0000000 -1.0000000 )


      isym = 11     inv. 180 deg rotation - cryst. axis [0,1,0]  

 cryst.   s(11) = (     1          1          0      )
                  (     0         -1          0      )
                  (     0          0          1      )

 cart.    s(11) = (  0.5000000  0.8660254  0.0000000 )
                  (  0.8660254 -0.5000000  0.0000000 )
                  (  0.0000000  0.0000000  1.0000000 )


      isym = 12     inv. 180 deg rotation - cryst. axis [1,1,0]  

 cryst.   s(12) = (     0         -1          0      )
                  (    -1          0          0      )
                  (     0          0          1      )

 cart.    s(12) = (  0.5000000 -0.8660254  0.0000000 )
                  ( -0.8660254 -0.5000000  0.0000000 )
                  (  0.0000000  0.0000000  1.0000000 )


   Cartesian axes

     site n.     atom                  positions (alat units)
         1        Mg     tau(   1) = (  -0.0000000   0.1924501   0.3310404  )
         2        Mg     tau(   2) = (   0.1666667   0.0962250   0.1957454  )
         3        Mg     tau(   3) = (  -0.0000000   0.0000000   0.0000000  )
         4        Bi     tau(   4) = (  -0.0000000   0.1924502   0.1157283  )
         5        Bi     tau(   5) = (   0.1666665   0.0962250   0.4110576  )
         6        Mg     tau(   6) = (  -0.0000000   0.1924501   0.8578261  )
         7        Mg     tau(   7) = (   0.1666667   0.0962250   0.7225311  )
         8        Mg     tau(   8) = (   0.0000000  -0.0000000   0.5267857  )
         9        Bi     tau(   9) = (  -0.0000000   0.1924499   0.6425139  )
        10        Bi     tau(  10) = (   0.1666668   0.0962251   0.9378431  )
        11        Mg     tau(  11) = (  -0.1666666   0.4811252   0.3310404  )
        12        Mg     tau(  12) = (   0.0000000   0.3849002   0.1957454  )
        13        Mg     tau(  13) = (  -0.1666667   0.2886751   0.0000000  )
        14        Bi     tau(  14) = (  -0.1666665   0.4811253   0.1157284  )
        15        Bi     tau(  15) = (   0.0000000   0.3849002   0.4110575  )
        16        Mg     tau(  16) = (  -0.1666667   0.4811252   0.8578261  )
        17        Mg     tau(  17) = (   0.0000000   0.3849002   0.7225311  )
        18        Mg     tau(  18) = (  -0.1666666   0.2886751   0.5267857  )
        19        Bi     tau(  19) = (  -0.1666668   0.4811251   0.6425138  )
        20        Bi     tau(  20) = (   0.0000000   0.3849001   0.9378434  )
        21        Mg     tau(  21) = (  -0.3333333   0.7698004   0.3310404  )
        22        Mg     tau(  22) = (  -0.1666666   0.6735753   0.1957454  )
        23        Mg     tau(  23) = (  -0.3333333   0.5773503   0.0000000  )
        24        Bi     tau(  24) = (  -0.3333332   0.7698003   0.1157283  )
        25        Bi     tau(  25) = (  -0.1666666   0.6735753   0.4110575  )
        26        Mg     tau(  26) = (  -0.3333333   0.7698004   0.8578261  )
        27        Mg     tau(  27) = (  -0.1666667   0.6735753   0.7225311  )
        28        Mg     tau(  28) = (  -0.3333334   0.5773503   0.5267857  )
        29        Bi     tau(  29) = (  -0.3333335   0.7698004   0.6425139  )
        30        Bi     tau(  30) = (  -0.1666667   0.6735753   0.9378434  )
        31        Mg     tau(  31) = (   0.3333333   0.1924501   0.3310404  )
        32        Mg     tau(  32) = (   0.5000000   0.0962250   0.1957453  )
        33        Mg     tau(  33) = (   0.3333333   0.0000000   0.0000000  )
        34        Bi     tau(  34) = (   0.3333333   0.1924501   0.1157281  )
        35        Bi     tau(  35) = (   0.5000000   0.0962249   0.4110577  )
        36        Mg     tau(  36) = (   0.3333334   0.1924501   0.8578261  )
        37        Mg     tau(  37) = (   0.5000000   0.0962251   0.7225311  )
        38        Mg     tau(  38) = (   0.3333333  -0.0000000   0.5267857  )
        39        Bi     tau(  39) = (   0.3333334   0.1924501   0.6425140  )
        40        Bi     tau(  40) = (   0.5000000   0.0962253   0.9378431  )
        41        Mg     tau(  41) = (   0.1666666   0.4811252   0.3310404  )
        42        Mg     tau(  42) = (   0.3333333   0.3849002   0.1957453  )
        43        Mg     tau(  43) = (   0.1666667   0.2886751  -0.0000000  )
        44        Bi     tau(  44) = (   0.1666665   0.4811253   0.1157284  )
        45        Bi     tau(  45) = (   0.3333332   0.3849003   0.4110577  )
        46        Mg     tau(  46) = (   0.1666667   0.4811252   0.8578261  )
        47        Mg     tau(  47) = (   0.3333334   0.3849002   0.7225311  )
        48        Mg     tau(  48) = (   0.1666666   0.2886751   0.5267857  )
        49        Bi     tau(  49) = (   0.1666668   0.4811251   0.6425138  )
        50        Bi     tau(  50) = (   0.3333335   0.3849001   0.9378431  )
        51        Mg     tau(  51) = (  -0.0000000   0.7698003   0.3310404  )
        52        Mg     tau(  52) = (   0.1666666   0.6735753   0.1957454  )
        53        Mg     tau(  53) = (  -0.0000000   0.5773503   0.0000000  )
        54        Bi     tau(  54) = (  -0.0000000   0.7698001   0.1157284  )
        55        Bi     tau(  55) = (   0.1666666   0.6735753   0.4110575  )
        56        Mg     tau(  56) = (  -0.0000000   0.7698004   0.8578261  )
        57        Mg     tau(  57) = (   0.1666667   0.6735753   0.7225311  )
        58        Mg     tau(  58) = (  -0.0000000   0.5773503   0.5267857  )
        59        Bi     tau(  59) = (  -0.0000000   0.7698006   0.6425138  )
        60        Bi     tau(  60) = (   0.1666667   0.6735753   0.9378434  )
        61        Mg     tau(  61) = (   0.6666667   0.1924501   0.3310404  )
        62        Mg     tau(  62) = (   0.8333333   0.0962250   0.1957454  )
        63        Mg     tau(  63) = (   0.6666667  -0.0000000   0.0000000  )
        64        Bi     tau(  64) = (   0.6666667   0.1924501   0.1157281  )
        65        Bi     tau(  65) = (   0.8333335   0.0962250   0.4110576  )
        66        Mg     tau(  66) = (   0.6666666   0.1924501   0.8578261  )
        67        Mg     tau(  67) = (   0.8333333   0.0962250   0.7225311  )
        68        Mg     tau(  68) = (   0.6666667   0.0000000   0.5267857  )
        69        Bi     tau(  69) = (   0.6666666   0.1924501   0.6425140  )
        70        Bi     tau(  70) = (   0.8333332   0.0962251   0.9378431  )
        71        Mg     tau(  71) = (   0.5000000   0.4811252   0.3310404  )
        72        Mg     tau(  72) = (   0.6666667   0.3849002   0.1957453  )
        73        Mg     tau(  73) = (   0.5000000   0.2886751  -0.0000000  )
        74        Bi     tau(  74) = (   0.5000000   0.4811253   0.1157281  )
        75        Bi     tau(  75) = (   0.6666668   0.3849003   0.4110577  )
        76        Mg     tau(  76) = (   0.5000000   0.4811252   0.8578261  )
        77        Mg     tau(  77) = (   0.6666666   0.3849002   0.7225311  )
        78        Mg     tau(  78) = (   0.5000000   0.2886751   0.5267858  )
        79        Bi     tau(  79) = (   0.5000000   0.4811252   0.6425140  )
        80        Bi     tau(  80) = (   0.6666665   0.3849001   0.9378431  )
        81        Mg     tau(  81) = (   0.3333333   0.7698004   0.3310404  )
        82        Mg     tau(  82) = (   0.5000000   0.6735753   0.1957454  )
        83        Mg     tau(  83) = (   0.3333333   0.5773503  -0.0000000  )
        84        Bi     tau(  84) = (   0.3333332   0.7698003   0.1157283  )
        85        Bi     tau(  85) = (   0.5000000   0.6735755   0.4110576  )
        86        Mg     tau(  86) = (   0.3333333   0.7698004   0.8578261  )
        87        Mg     tau(  87) = (   0.5000000   0.6735753   0.7225311  )
        88        Mg     tau(  88) = (   0.3333334   0.5773503   0.5267857  )
        89        Bi     tau(  89) = (   0.3333335   0.7698004   0.6425139  )
        90        Bi     tau(  90) = (   0.5000000   0.6735752   0.9378431  )

   Crystallographic axes

     site n.     atom                  positions (cryst. coord.)
         1        Mg     tau(   1) = (  0.1111111  0.2222222  0.3142078  )
         2        Mg     tau(   2) = (  0.2222222  0.1111111  0.1857922  )
         3        Mg     tau(   3) = (  0.0000000  0.0000000  0.0000000  )
         4        Bi     tau(   4) = (  0.1111112  0.2222224  0.1098438  )
         5        Bi     tau(   5) = (  0.2222220  0.1111110  0.3901563  )
         6        Mg     tau(   6) = (  0.1111111  0.2222222  0.8142078  )
         7        Mg     tau(   7) = (  0.2222222  0.1111111  0.6857922  )
         8        Mg     tau(   8) = (  0.0000000  0.0000000  0.5000000  )
         9        Bi     tau(   9) = (  0.1111110  0.2222220  0.6098437  )
        10        Bi     tau(  10) = (  0.2222224  0.1111112  0.8901562  )
        11        Mg     tau(  11) = (  0.1111112  0.5555556  0.3142078  )
        12        Mg     tau(  12) = (  0.2222222  0.4444445  0.1857922  )
        13        Mg     tau(  13) = (  0.0000000  0.3333333  0.0000000  )
        14        Bi     tau(  14) = (  0.1111114  0.5555557  0.1098439  )
        15        Bi     tau(  15) = (  0.2222222  0.4444445  0.3901562  )
        16        Mg     tau(  16) = (  0.1111111  0.5555555  0.8142078  )
        17        Mg     tau(  17) = (  0.2222222  0.4444444  0.6857922  )
        18        Mg     tau(  18) = (  0.0000000  0.3333333  0.5000000  )
        19        Bi     tau(  19) = (  0.1111109  0.5555554  0.6098436  )
        20        Bi     tau(  20) = (  0.2222222  0.4444444  0.8901564  )
        21        Mg     tau(  21) = (  0.1111111  0.8888889  0.3142078  )
        22        Mg     tau(  22) = (  0.2222222  0.7777778  0.1857922  )
        23        Mg     tau(  23) = ( -0.0000000  0.6666667  0.0000000  )
        24        Bi     tau(  24) = (  0.1111112  0.8888888  0.1098438  )
        25        Bi     tau(  25) = (  0.2222222  0.7777778  0.3901562  )
        26        Mg     tau(  26) = (  0.1111111  0.8888889  0.8142078  )
        27        Mg     tau(  27) = (  0.2222222  0.7777778  0.6857922  )
        28        Mg     tau(  28) = ( -0.0000000  0.6666667  0.5000000  )
        29        Bi     tau(  29) = (  0.1111110  0.8888890  0.6098437  )
        30        Bi     tau(  30) = (  0.2222222  0.7777778  0.8901564  )
        31        Mg     tau(  31) = (  0.4444444  0.2222222  0.3142078  )
        32        Mg     tau(  32) = (  0.5555555  0.1111111  0.1857922  )
        33        Mg     tau(  33) = (  0.3333333  0.0000000  0.0000000  )
        34        Bi     tau(  34) = (  0.4444444  0.2222222  0.1098436  )
        35        Bi     tau(  35) = (  0.5555554  0.1111109  0.3901564  )
        36        Mg     tau(  36) = (  0.4444445  0.2222222  0.8142078  )
        37        Mg     tau(  37) = (  0.5555556  0.1111112  0.6857922  )
        38        Mg     tau(  38) = (  0.3333333  0.0000000  0.5000000  )
        39        Bi     tau(  39) = (  0.4444445  0.2222222  0.6098438  )
        40        Bi     tau(  40) = (  0.5555557  0.1111114  0.8901561  )
        41        Mg     tau(  41) = (  0.4444444  0.5555556  0.3142078  )
        42        Mg     tau(  42) = (  0.5555555  0.4444445  0.1857922  )
        43        Mg     tau(  43) = (  0.3333333  0.3333333  0.0000000  )
        44        Bi     tau(  44) = (  0.4444443  0.5555557  0.1098439  )
        45        Bi     tau(  45) = (  0.5555554  0.4444446  0.3901564  )
        46        Mg     tau(  46) = (  0.4444445  0.5555555  0.8142078  )
        47        Mg     tau(  47) = (  0.5555556  0.4444444  0.6857922  )
        48        Mg     tau(  48) = (  0.3333333  0.3333333  0.5000000  )
        49        Bi     tau(  49) = (  0.4444446  0.5555554  0.6098436  )
        50        Bi     tau(  50) = (  0.5555557  0.4444443  0.8901561  )
        51        Mg     tau(  51) = (  0.4444444  0.8888888  0.3142078  )
        52        Mg     tau(  52) = (  0.5555555  0.7777778  0.1857922  )
        53        Mg     tau(  53) = (  0.3333333  0.6666667  0.0000000  )
        54        Bi     tau(  54) = (  0.4444443  0.8888886  0.1098439  )
        55        Bi     tau(  55) = (  0.5555555  0.7777778  0.3901562  )
        56        Mg     tau(  56) = (  0.4444445  0.8888889  0.8142078  )
        57        Mg     tau(  57) = (  0.5555556  0.7777778  0.6857922  )
        58        Mg     tau(  58) = (  0.3333333  0.6666667  0.5000000  )
        59        Bi     tau(  59) = (  0.4444446  0.8888891  0.6098436  )
        60        Bi     tau(  60) = (  0.5555556  0.7777778  0.8901564  )
        61        Mg     tau(  61) = (  0.7777778  0.2222222  0.3142078  )
        62        Mg     tau(  62) = (  0.8888889  0.1111111  0.1857922  )
        63        Mg     tau(  63) = (  0.6666667  0.0000000  0.0000000  )
        64        Bi     tau(  64) = (  0.7777778  0.2222222  0.1098436  )
        65        Bi     tau(  65) = (  0.8888890  0.1111110  0.3901563  )
        66        Mg     tau(  66) = (  0.7777778  0.2222222  0.8142078  )
        67        Mg     tau(  67) = (  0.8888889  0.1111111  0.6857922  )
        68        Mg     tau(  68) = (  0.6666667  0.0000000  0.5000000  )
        69        Bi     tau(  69) = (  0.7777778  0.2222222  0.6098438  )
        70        Bi     tau(  70) = (  0.8888888  0.1111112  0.8901562  )
        71        Mg     tau(  71) = (  0.7777778  0.5555556  0.3142078  )
        72        Mg     tau(  72) = (  0.8888889  0.4444445  0.1857922  )
        73        Mg     tau(  73) = (  0.6666667  0.3333333 -0.0000000  )
        74        Bi     tau(  74) = (  0.7777778  0.5555556  0.1098436  )
        75        Bi     tau(  75) = (  0.8888891  0.4444446  0.3901564  )
        76        Mg     tau(  76) = (  0.7777778  0.5555555  0.8142078  )
        77        Mg     tau(  77) = (  0.8888888  0.4444444  0.6857922  )
        78        Mg     tau(  78) = (  0.6666667  0.3333333  0.5000000  )
        79        Bi     tau(  79) = (  0.7777778  0.5555555  0.6098438  )
        80        Bi     tau(  80) = (  0.8888886  0.4444443  0.8901561  )
        81        Mg     tau(  81) = (  0.7777778  0.8888889  0.3142078  )
        82        Mg     tau(  82) = (  0.8888889  0.7777778  0.1857922  )
        83        Mg     tau(  83) = (  0.6666667  0.6666667  0.0000000  )
        84        Bi     tau(  84) = (  0.7777776  0.8888888  0.1098438  )
        85        Bi     tau(  85) = (  0.8888890  0.7777780  0.3901563  )
        86        Mg     tau(  86) = (  0.7777778  0.8888889  0.8142078  )
        87        Mg     tau(  87) = (  0.8888889  0.7777778  0.6857922  )
        88        Mg     tau(  88) = (  0.6666667  0.6666667  0.5000000  )
        89        Bi     tau(  89) = (  0.7777780  0.8888890  0.6098437  )
        90        Bi     tau(  90) = (  0.8888888  0.7777776  0.8901562  )

     number of k points=     4  Methfessel-Paxton smearing, width (Ry)=  0.0100
                       cart. coord. in units 2pi/alat
        k(    1) = (   0.0000000   0.0000000   0.0000000), wk =   0.2500000
        k(    2) = (   0.0000000   0.0000000  -0.4745763), wk =   0.2500000
        k(    3) = (   0.0000000  -0.5773503   0.0000000), wk =   0.7500000
        k(    4) = (   0.0000000  -0.5773503  -0.4745763), wk =   0.7500000

                       cryst. coord.
        k(    1) = (   0.0000000   0.0000000   0.0000000), wk =   0.2500000
        k(    2) = (   0.0000000   0.0000000  -0.5000000), wk =   0.2500000
        k(    3) = (   0.0000000  -0.5000000   0.0000000), wk =   0.7500000
        k(    4) = (   0.0000000  -0.5000000  -0.5000000), wk =   0.7500000

     Dense  grid:  4436351 G-vectors     FFT dimensions: ( 216, 216, 225)

     Dynamical RAM for                 wfc:      68.54 MB

     Dynamical RAM for     wfc (w. buffer):     205.62 MB

     Dynamical RAM for           str. fact:       1.69 MB

     Dynamical RAM for           local pot:       0.00 MB

     Dynamical RAM for          nlocal pot:     114.24 MB

     Dynamical RAM for                qrad:       4.06 MB

     Dynamical RAM for          rho,v,vnew:       5.74 MB

     Dynamical RAM for               rhoin:       1.91 MB

     Dynamical RAM for            rho*nmix:      13.54 MB

     Dynamical RAM for           G-vectors:       3.60 MB

     Dynamical RAM for          h,s,v(r/c):       2.14 MB

     Dynamical RAM for          <psi|beta>:      10.68 MB

     Dynamical RAM for                 psi:     137.08 MB

     Dynamical RAM for                hpsi:     137.08 MB

     Dynamical RAM for      wfcinit/wfcrot:     146.70 MB

     Estimated static dynamical RAM per process >     344.74 MB

     Estimated max dynamical RAM per process >     645.26 MB

     Estimated total dynamical RAM >     149.12 GB

     Initial potential from superposition of free atoms

     starting charge    1079.9367, renormalised to    1080.0000
     Starting wfcs are  594 randomized atomic wfcs +   54 random wfcs

     total cpu time spent up to now is       28.8 secs

     per-process dynamical memory:   615.5 Mb

     Self-consistent Calculation

     iteration #  1     ecut=   160.00 Ry     beta= 0.30
     Davidson diagonalization with overlap

---- Real-time Memory Report at c_bands before calling an iterative solver
           785 MiB given to the printing process from OS
           601 MiB allocation reported by mallinfo(arena+hblkhd)
        154901 MiB available memory on the node where the printing process lives
------------------
     ethr =  1.00E-02,  avg # of iterations =  5.3

     Threshold (ethr) on eigenvalues was too large:
     Diagonalizing with lowered threshold

     Davidson diagonalization with overlap

---- Real-time Memory Report at c_bands before calling an iterative solver
          1001 MiB given to the printing process from OS
           607 MiB allocation reported by mallinfo(arena+hblkhd)
        154802 MiB available memory on the node where the printing process lives
------------------
     ethr =  2.12E-04,  avg # of iterations = 12.5

     total cpu time spent up to now is      169.2 secs

     total energy              =  -12302.31218285 Ry
     estimated scf accuracy    <       2.13979094 Ry

     iteration #  2     ecut=   160.00 Ry     beta= 0.30
     Davidson diagonalization with overlap

---- Real-time Memory Report at c_bands before calling an iterative solver
          1002 MiB given to the printing process from OS
           607 MiB allocation reported by mallinfo(arena+hblkhd)
        154738 MiB available memory on the node where the printing process lives
------------------
     ethr =  1.98E-04,  avg # of iterations =  2.0

     total cpu time spent up to now is      224.7 secs

     total energy              =  -12302.19697627 Ry
     estimated scf accuracy    <       0.57331943 Ry

     iteration #  3     ecut=   160.00 Ry     beta= 0.30
     Davidson diagonalization with overlap

---- Real-time Memory Report at c_bands before calling an iterative solver
          1015 MiB given to the printing process from OS
           613 MiB allocation reported by mallinfo(arena+hblkhd)
        154503 MiB available memory on the node where the printing process lives
------------------
     ethr =  5.31E-05,  avg # of iterations =  6.3

     total cpu time spent up to now is      284.7 secs

     total energy              =  -12302.25079843 Ry
     estimated scf accuracy    <       0.05396274 Ry

     iteration #  4     ecut=   160.00 Ry     beta= 0.30
     Davidson diagonalization with overlap

---- Real-time Memory Report at c_bands before calling an iterative solver
          1018 MiB given to the printing process from OS
           618 MiB allocation reported by mallinfo(arena+hblkhd)
        154432 MiB available memory on the node where the printing process lives
------------------
     c_bands:  1 eigenvalues not converged
     ethr =  5.00E-06,  avg # of iterations = 17.0

     total cpu time spent up to now is      366.7 secs

     total energy              =  -12302.25194988 Ry
     estimated scf accuracy    <       0.01486910 Ry

     iteration #  5     ecut=   160.00 Ry     beta= 0.30
     Davidson diagonalization with overlap

---- Real-time Memory Report at c_bands before calling an iterative solver
          1022 MiB given to the printing process from OS
           621 MiB allocation reported by mallinfo(arena+hblkhd)
        154175 MiB available memory on the node where the printing process lives
------------------
     ethr =  1.38E-06,  avg # of iterations =  2.0

     total cpu time spent up to now is      425.1 secs

     total energy              =  -12302.25283446 Ry
     estimated scf accuracy    <       0.00125717 Ry

     iteration #  6     ecut=   160.00 Ry     beta= 0.30
     Davidson diagonalization with overlap

---- Real-time Memory Report at c_bands before calling an iterative solver
          1024 MiB given to the printing process from OS
           621 MiB allocation reported by mallinfo(arena+hblkhd)
        154063 MiB available memory on the node where the printing process lives
------------------
     ethr =  1.16E-07,  avg # of iterations =  2.0

     total cpu time spent up to now is      480.1 secs

     total energy              =  -12302.25288955 Ry
     estimated scf accuracy    <       0.00038217 Ry

     iteration #  7     ecut=   160.00 Ry     beta= 0.30
     Davidson diagonalization with overlap

---- Real-time Memory Report at c_bands before calling an iterative solver
          1027 MiB given to the printing process from OS
           621 MiB allocation reported by mallinfo(arena+hblkhd)
        154001 MiB available memory on the node where the printing process lives
------------------
     ethr =  3.54E-08,  avg # of iterations =  2.0

     total cpu time spent up to now is      532.0 secs

     total energy              =  -12302.25292667 Ry
     estimated scf accuracy    <       0.00006410 Ry

     iteration #  8     ecut=   160.00 Ry     beta= 0.30
     Davidson diagonalization with overlap

---- Real-time Memory Report at c_bands before calling an iterative solver
          1027 MiB given to the printing process from OS
           621 MiB allocation reported by mallinfo(arena+hblkhd)
        153903 MiB available memory on the node where the printing process lives
------------------
     ethr =  5.94E-09,  avg # of iterations =  2.0

     total cpu time spent up to now is      587.2 secs

     total energy              =  -12302.25293627 Ry
     estimated scf accuracy    <       0.00001534 Ry

     iteration #  9     ecut=   160.00 Ry     beta= 0.30
     Davidson diagonalization with overlap

---- Real-time Memory Report at c_bands before calling an iterative solver
          1031 MiB given to the printing process from OS
           625 MiB allocation reported by mallinfo(arena+hblkhd)
        153763 MiB available memory on the node where the printing process lives
------------------
     ethr =  1.42E-09,  avg # of iterations =  2.0

     total cpu time spent up to now is      639.8 secs

     total energy              =  -12302.25293655 Ry
     estimated scf accuracy    <       0.00000371 Ry

     iteration # 10     ecut=   160.00 Ry     beta= 0.30
     Davidson diagonalization with overlap

---- Real-time Memory Report at c_bands before calling an iterative solver
          1032 MiB given to the printing process from OS
           626 MiB allocation reported by mallinfo(arena+hblkhd)
        153602 MiB available memory on the node where the printing process lives
------------------
     ethr =  3.44E-10,  avg # of iterations =  2.0

     total cpu time spent up to now is      695.3 secs

     total energy              =  -12302.25293712 Ry
     estimated scf accuracy    <       0.00000016 Ry

     iteration # 11     ecut=   160.00 Ry     beta= 0.30
     Davidson diagonalization with overlap

---- Real-time Memory Report at c_bands before calling an iterative solver
          1034 MiB given to the printing process from OS
           628 MiB allocation reported by mallinfo(arena+hblkhd)
        153579 MiB available memory on the node where the printing process lives
------------------
     ethr =  1.52E-11,  avg # of iterations =  2.0

     total cpu time spent up to now is      751.1 secs

     total energy              =  -12302.25293714 Ry
     estimated scf accuracy    <       0.00000003 Ry

     iteration # 12     ecut=   160.00 Ry     beta= 0.30
     Davidson diagonalization with overlap

---- Real-time Memory Report at c_bands before calling an iterative solver
          1035 MiB given to the printing process from OS
           628 MiB allocation reported by mallinfo(arena+hblkhd)
        153573 MiB available memory on the node where the printing process lives
------------------
     ethr =  2.99E-12,  avg # of iterations =  2.0

     total cpu time spent up to now is      806.2 secs

     End of self-consistent calculation

          k = 0.0000 0.0000 0.0000 (554781 PWs)   bands (ev):

   -68.3028 -68.3028 -68.3028 -68.3028 -68.3028 -68.3028 -68.3028 -68.3028
   -68.3028 -68.3028 -68.3028 -68.3028 -68.3028 -68.3028 -68.3028 -68.3028
   -68.3028 -68.3028 -67.7523 -67.7523 -67.7521 -67.7521 -67.7521 -67.7521
   -67.7521 -67.7521 -67.7520 -67.7520 -67.7520 -67.7520 -67.7520 -67.7520
   -67.7517 -67.7517 -67.7517 -67.7517 -67.7517 -67.7517 -67.7517 -67.7517
   -67.7514 -67.7514 -67.7514 -67.7514 -67.7514 -67.7514 -67.7514 -67.7514
   -67.7513 -67.7513 -67.7513 -67.7513 -67.7511 -67.7511 -35.7144 -35.7144
   -35.7144 -35.7144 -35.7143 -35.7143 -35.7143 -35.7143 -35.7143 -35.7143
   -35.7143 -35.7143 -35.7143 -35.7143 -35.7143 -35.7143 -35.7143 -35.7143
   -35.7081 -35.7081 -35.7081 -35.7081 -35.7081 -35.7081 -35.7081 -35.7081
   -35.7081 -35.7081 -35.7081 -35.7081 -35.7081 -35.7081 -35.7081 -35.7081
   -35.7081 -35.7081 -35.7081 -35.7081 -35.7080 -35.7080 -35.7080 -35.7080
   -35.7080 -35.7080 -35.7080 -35.7080 -35.7080 -35.7080 -35.7080 -35.7080
   -35.7079 -35.7079 -35.7079 -35.7079 -35.1849 -35.1849 -35.1849 -35.1849
   -35.1845 -35.1845 -35.1845 -35.1845 -35.1845 -35.1845 -35.1845 -35.1845
   -35.1845 -35.1845 -35.1845 -35.1845 -35.1844 -35.1844 -35.1844 -35.1844
   -35.1844 -35.1844 -35.1844 -35.1844 -35.1844 -35.1844 -35.1844 -35.1844
   -35.1840 -35.1840 -35.1840 -35.1840 -35.1840 -35.1840 -35.1840 -35.1840
   -35.1839 -35.1839 -35.1839 -35.1839 -35.1830 -35.1830 -35.1830 -35.1830
   -35.1830 -35.1830 -35.1830 -35.1830 -35.1830 -35.1830 -35.1830 -35.1830
   -35.1817 -35.1817 -35.1782 -35.1782 -35.1782 -35.1782 -35.1778 -35.1778
   -35.1778 -35.1778 -35.1778 -35.1778 -35.1777 -35.1777 -35.1777 -35.1777
   -35.1777 -35.1777 -35.1774 -35.1774 -35.1774 -35.1774 -35.1767 -35.1767
   -35.1767 -35.1767 -35.1767 -35.1767 -35.1767 -35.1767 -35.1767 -35.1767
   -35.1767 -35.1767 -35.1762 -35.1762 -35.1761 -35.1761 -35.1761 -35.1761
   -35.1761 -35.1761 -35.1761 -35.1761 -35.1759 -35.1759 -35.1759 -35.1759
   -35.1759 -35.1759 -35.1759 -35.1759 -35.1759 -35.1759 -35.1759 -35.1759
   -14.2026 -14.2026 -14.2026 -14.2026 -14.2026 -14.2026 -14.2021 -14.2021
   -14.2021 -14.2021 -14.2021 -14.2021 -14.2012 -14.2012 -14.1998 -14.1998
   -14.1992 -14.1992 -14.1983 -14.1983 -14.1962 -14.1962 -14.1962 -14.1962
   -14.1962 -14.1962 -14.1962 -14.1962 -14.1962 -14.1962 -14.1960 -14.1960
   -14.1960 -14.1960 -14.1960 -14.1960 -14.1959 -14.1959 -14.1959 -14.1959
   -14.1958 -14.1958 -14.1955 -14.1955 -14.1955 -14.1955 -14.1955 -14.1955
   -14.1949 -14.1949 -14.1949 -14.1949 -14.1949 -14.1949 -14.1941 -14.1941
   -14.1917 -14.1917 -14.1917 -14.1917 -14.1917 -14.1917 -14.1915 -14.1915
   -14.1909 -14.1909 -14.1909 -14.1909 -14.1909 -14.1909 -14.1899 -14.1899
   -14.1768 -14.1763 -14.1752 -14.1752 -14.1752 -14.1752 -14.1752 -14.1752
   -14.1744 -14.1742 -14.1742 -14.1742 -14.1742 -14.1742 -14.1742 -14.1738
   -14.1715 -14.1715 -14.1715 -14.1715 -14.1714 -14.1714 -14.1714 -14.1714
   -14.1714 -14.1714 -14.1712 -14.1712 -14.1712 -14.1712 -14.1708 -14.1708
   -14.1708 -14.1708 -14.1708 -14.1708 -14.1609 -14.1609 -14.1609 -14.1609
   -14.1593 -14.1593 -14.1579 -14.1579 -14.1575 -14.1575 -14.1575 -14.1575
   -14.1575 -14.1575 -14.1571 -14.1571 -14.1571 -14.1571 -14.1571 -14.1571
   -14.1570 -14.1570 -14.1570 -14.1570 -14.1570 -14.1570 -14.1565 -14.1565
   -14.1565 -14.1565 -14.1565 -14.1565 -14.1510 -14.1510 -14.1510 -14.1510
   -14.1503 -14.1503 -14.1503 -14.1503 -14.1500 -14.1500 -14.1500 -14.1500
   -14.1500 -14.1500 -14.1498 -14.1498 -14.1498 -14.1498 -14.1498 -14.1498
   -14.1466 -14.1466 -14.1463 -14.1463 -14.1461 -14.1461 -14.1448 -14.1448
   -14.1444 -14.1444 -14.1444 -14.1444 -14.1444 -14.1444 -14.1435 -14.1435
   -14.1435 -14.1435 -14.1435 -14.1435  -3.7199  -3.4449  -3.1729  -3.1729
    -3.1729  -3.1729  -3.1729  -3.1729  -3.1251  -2.9750  -2.9750  -2.9750
    -2.9750  -2.9750  -2.9750  -2.7760  -2.7760  -2.7760  -2.7760  -2.7760
    -2.7760  -2.7281  -2.6434  -2.6434  -2.6434  -2.6434  -2.6314  -2.6314
    -2.6314  -2.6314  -2.5420  -2.5420  -2.5420  -2.5420  -2.5420  -2.5420
     2.9748   3.4982   3.4982   3.4982   3.4982   3.4982   3.4982   3.5767
     3.5767   3.6407   3.6407   3.6407   3.6407   3.7590   3.7591   3.7591
     3.7591   3.7591   3.7591   3.8478   3.8478   3.8478   3.8478   3.8478
     3.8478   3.9023   3.9023   3.9926   3.9926   3.9926   3.9926   3.9926
     3.9926   4.3274   4.3274   4.3274   4.3274   4.5285   4.7040   4.7040
     4.7040   4.7040   4.7040   4.7040   4.7432   4.7432   4.7929   5.4017
     5.4017   5.4017   5.4017   5.5488   5.5488   5.9327   5.9327   5.9327
     5.9327   5.9327   5.9327   6.0155   6.0155   6.0155   6.0155   6.0155
     6.0155   6.3308   6.3308   6.3308   6.3308   6.3308   6.3308   6.3540
     6.3540   6.3540   6.3540   6.3540   6.3540   6.6980   6.6980   6.6980
     6.6980   6.6980   6.6980   6.7833   6.7833   6.7833   6.7833   6.7833
     6.7833   7.0156   7.0156   7.0990   7.0990   7.0990   7.0990   7.3756
     7.3756   7.3818   7.3818   7.4329   7.4329   7.4329   7.4329   7.4329
     7.4329   7.7638   7.7638   7.9814   8.0388   8.2476   8.2476   8.5191
     8.5191   8.5191   8.5191   8.5191   8.5191   8.6122   8.6122   8.6122
     8.6122   8.6122   8.6122   8.9084   9.2279   9.4269   9.4448   9.4448
     9.4448   9.4448   9.4448   9.4448   9.5381   9.5381   9.5381   9.5381
     9.8024   9.8024   9.8024   9.8024   9.8024   9.8024  10.4640  10.4640
    10.4798  10.4798  10.4798  10.4798  10.4798  10.4798  10.4952  10.4952
    10.4952  10.4952  10.4952  10.4952  10.6758  10.6758  10.7969  10.7969
    10.9078  10.9078  10.9079  10.9079  10.9079  10.9079  11.0456  11.0456
    11.0456  11.0456  11.0456  11.0456  11.2113  11.2113  11.5690  11.6927
    11.6927  11.8874  12.0818  12.0818  12.0818  12.0818  12.0818  12.0818
    12.1609  12.1609  12.2266  12.2738  12.2738  12.2738  12.2738  12.3538
    12.3538  12.4863  12.4863  12.4863  12.4863  12.4863  12.4863  12.5762
    12.7706  12.7706  12.7706  12.7706  12.7969  12.7969  12.7969  12.7969
    12.7969  12.7969  13.0538  13.0538  13.1220  13.1220  13.1220  13.1221

     occupation numbers 
     1.0000   1.0000   1.0000   1.0000   1.0000   1.0000   1.0000   1.0000
     1.0000   1.0000   1.0000   1.0000   1.0000   1.0000   1.0000   1.0000
     1.0000   1.0000   1.0000   1.0000   1.0000   1.0000   1.0000   1.0000
     1.0000   1.0000   1.0000   1.0000   1.0000   1.0000   1.0000   1.0000
     1.0000   1.0000   1.0000   1.0000   1.0000   1.0000   1.0000   1.0000
     1.0000   1.0000   1.0000   1.0000   1.0000   1.0000   1.0000   1.0000
     1.0000   1.0000   1.0000   1.0000   1.0000   1.0000   1.0000   1.0000
     1.0000   1.0000   1.0000   1.0000   1.0000   1.0000   1.0000   1.0000
     1.0000   1.0000   1.0000   1.0000   1.0000   1.0000   1.0000   1.0000
     1.0000   1.0000   1.0000   1.0000   1.0000   1.0000   1.0000   1.0000
     1.0000   1.0000   1.0000   1.0000   1.0000   1.0000   1.0000   1.0000
     1.0000   1.0000   1.0000   1.0000   1.0000   1.0000   1.0000   1.0000
     1.0000   1.0000   1.0000   1.0000   1.0000   1.0000   1.0000   1.0000
     1.0000   1.0000   1.0000   1.0000   1.0000   1.0000   1.0000   1.0000
     1.0000   1.0000   1.0000   1.0000   1.0000   1.0000   1.0000   1.0000
     1.0000   1.0000   1.0000   1.0000   1.0000   1.0000   1.0000   1.0000
     1.0000   1.0000   1.0000   1.0000   1.0000   1.0000   1.0000   1.0000
     1.0000   1.0000   1.0000   1.0000   1.0000   1.0000   1.0000   1.0000
     1.0000   1.0000   1.0000   1.0000   1.0000   1.0000   1.0000   1.0000
     1.0000   1.0000   1.0000   1.0000   1.0000   1.0000   1.0000   1.0000
     1.0000   1.0000   1.0000   1.0000   1.0000   1.0000   1.0000   1.0000
     1.0000   1.0000   1.0000   1.0000   1.0000   1.0000   1.0000   1.0000
     1.0000   1.0000   1.0000   1.0000   1.0000   1.0000   1.0000   1.0000
     1.0000   1.0000   1.0000   1.0000   1.0000   1.0000   1.0000   1.0000
     1.0000   1.0000   1.0000   1.0000   1.0000   1.0000   1.0000   1.0000
     1.0000   1.0000   1.0000   1.0000   1.0000   1.0000   1.0000   1.0000
     1.0000   1.0000   1.0000   1.0000   1.0000   1.0000   1.0000   1.0000
     1.0000   1.0000   1.0000   1.0000   1.0000   1.0000   1.0000   1.0000
     1.0000   1.0000   1.0000   1.0000   1.0000   1.0000   1.0000   1.0000
     1.0000   1.0000   1.0000   1.0000   1.0000   1.0000   1.0000   1.0000
     1.0000   1.0000   1.0000   1.0000   1.0000   1.0000   1.0000   1.0000
     1.0000   1.0000   1.0000   1.0000   1.0000   1.0000   1.0000   1.0000
     1.0000   1.0000   1.0000   1.0000   1.0000   1.0000   1.0000   1.0000
     1.0000   1.0000   1.0000   1.0000   1.0000   1.0000   1.0000   1.0000
     1.0000   1.0000   1.0000   1.0000   1.0000   1.0000   1.0000   1.0000
     1.0000   1.0000   1.0000   1.0000   1.0000   1.0000   1.0000   1.0000
     1.0000   1.0000   1.0000   1.0000   1.0000   1.0000   1.0000   1.0000
     1.0000   1.0000   1.0000   1.0000   1.0000   1.0000   1.0000   1.0000
     1.0000   1.0000   1.0000   1.0000   1.0000   1.0000   1.0000   1.0000
     1.0000   1.0000   1.0000   1.0000   1.0000   1.0000   1.0000   1.0000
     1.0000   1.0000   1.0000   1.0000   1.0000   1.0000   1.0000   1.0000
     1.0000   1.0000   1.0000   1.0000   1.0000   1.0000   1.0000   1.0000
     1.0000   1.0000   1.0000   1.0000   1.0000   1.0000   1.0000   1.0000
     1.0000   1.0000   1.0000   1.0000   1.0000   1.0000   1.0000   1.0000
     1.0000   1.0000   1.0000   1.0000   1.0000   1.0000   1.0000   1.0000
     1.0000   1.0000   1.0000   1.0000   1.0000   1.0000   1.0000   1.0000
     1.0000   1.0000   1.0000   1.0000   1.0000   1.0000   1.0000   1.0000
     1.0000   1.0000   1.0000   1.0000   1.0000   1.0000   1.0000   1.0000
     1.0000   1.0000   1.0000   1.0000   1.0000   1.0000   1.0000   1.0000
     1.0000   1.0000   1.0000   1.0000   1.0000   1.0000   1.0000   1.0000
     1.0000   1.0000   1.0000   1.0000   1.0000   1.0000   1.0000   1.0000
     1.0000   1.0000   1.0000   1.0000   1.0000   1.0000   1.0000   1.0000
     1.0000   1.0000   1.0000   1.0000   1.0000   1.0000   1.0000   1.0000
     1.0000   1.0000   1.0000   1.0000   1.0000   1.0000   1.0000   1.0000
     1.0000   1.0000   1.0000   1.0000   1.0000   1.0000   1.0000   1.0000
     1.0000   1.0000   1.0000   1.0000   1.0000   1.0000   1.0000   1.0000
     1.0000   1.0000   1.0000   1.0000   1.0000   1.0000   1.0000   1.0000
     1.0000   1.0000   1.0000   1.0000   1.0000   1.0000   1.0000   1.0000
     1.0000   1.0000   1.0000   1.0000   1.0000   1.0000   1.0000   1.0000
     1.0000   1.0000   1.0000   1.0000   1.0000   1.0000   1.0000   1.0000
     1.0000   1.0000   1.0000   1.0000   1.0000   1.0000   1.0000   1.0000
     1.0000   1.0000   1.0000   1.0000   1.0000   1.0000   1.0000   1.0000
     1.0000   1.0000   1.0000   1.0000   1.0000   1.0000   1.0000   1.0000
     1.0000   1.0000   1.0000   1.0000   1.0000   1.0000   1.0000   1.0000
     1.0000   1.0000   1.0000   1.0000   1.0000   1.0000   1.0000   1.0000
     1.0000   1.0000   1.0000   1.0000   1.0000   1.0000   1.0000   1.0000
     1.0000   1.0000   1.0000   1.0000   1.0000   1.0000   1.0000   1.0000
     1.0000   1.0153   1.0153   0.6485   0.3011  -0.0153  -0.0153  -0.0000
    -0.0000  -0.0000  -0.0000  -0.0000  -0.0000  -0.0000  -0.0000  -0.0000
    -0.0000  -0.0000  -0.0000  -0.0000  -0.0000  -0.0000  -0.0000  -0.0000
    -0.0000  -0.0000  -0.0000  -0.0000  -0.0000  -0.0000  -0.0000  -0.0000
    -0.0000  -0.0000  -0.0000  -0.0000  -0.0000  -0.0000  -0.0000  -0.0000
    -0.0000  -0.0000  -0.0000  -0.0000  -0.0000  -0.0000  -0.0000  -0.0000
    -0.0000  -0.0000  -0.0000  -0.0000  -0.0000  -0.0000  -0.0000  -0.0000
    -0.0000  -0.0000  -0.0000  -0.0000  -0.0000  -0.0000  -0.0000  -0.0000
    -0.0000  -0.0000  -0.0000  -0.0000  -0.0000  -0.0000  -0.0000  -0.0000
    -0.0000  -0.0000  -0.0000  -0.0000  -0.0000  -0.0000  -0.0000  -0.0000
    -0.0000  -0.0000  -0.0000  -0.0000  -0.0000  -0.0000  -0.0000  -0.0000
    -0.0000  -0.0000  -0.0000  -0.0000  -0.0000  -0.0000  -0.0000  -0.0000
    -0.0000  -0.0000  -0.0000  -0.0000  -0.0000  -0.0000  -0.0000  -0.0000
    -0.0000  -0.0000  -0.0000  -0.0000  -0.0000  -0.0000  -0.0000  -0.0000

          k = 0.0000 0.0000-0.4746 (554414 PWs)   bands (ev):

   -68.3028 -68.3028 -68.3028 -68.3028 -68.3028 -68.3028 -68.3028 -68.3028
   -68.3028 -68.3028 -68.3028 -68.3028 -68.3028 -68.3028 -68.3028 -68.3028
   -68.3028 -68.3028 -67.7523 -67.7523 -67.7521 -67.7521 -67.7521 -67.7521
   -67.7521 -67.7521 -67.7520 -67.7520 -67.7520 -67.7520 -67.7520 -67.7520
   -67.7517 -67.7517 -67.7517 -67.7517 -67.7517 -67.7517 -67.7517 -67.7517
   -67.7514 -67.7514 -67.7514 -67.7514 -67.7514 -67.7514 -67.7514 -67.7514
   -67.7513 -67.7513 -67.7513 -67.7513 -67.7511 -67.7511 -35.7144 -35.7144
   -35.7144 -35.7144 -35.7143 -35.7143 -35.7143 -35.7143 -35.7143 -35.7143
   -35.7143 -35.7143 -35.7143 -35.7143 -35.7143 -35.7143 -35.7143 -35.7143
   -35.7081 -35.7081 -35.7081 -35.7081 -35.7081 -35.7081 -35.7081 -35.7081
   -35.7081 -35.7081 -35.7081 -35.7081 -35.7081 -35.7081 -35.7081 -35.7081
   -35.7081 -35.7081 -35.7081 -35.7081 -35.7080 -35.7080 -35.7080 -35.7080
   -35.7080 -35.7080 -35.7080 -35.7080 -35.7080 -35.7080 -35.7080 -35.7080
   -35.7079 -35.7079 -35.7079 -35.7079 -35.1849 -35.1849 -35.1849 -35.1849
   -35.1845 -35.1845 -35.1845 -35.1845 -35.1845 -35.1845 -35.1845 -35.1845
   -35.1845 -35.1845 -35.1845 -35.1845 -35.1844 -35.1844 -35.1844 -35.1844
   -35.1844 -35.1844 -35.1844 -35.1844 -35.1844 -35.1844 -35.1844 -35.1844
   -35.1840 -35.1840 -35.1840 -35.1840 -35.1840 -35.1840 -35.1840 -35.1840
   -35.1839 -35.1839 -35.1839 -35.1839 -35.1830 -35.1830 -35.1830 -35.1830
   -35.1830 -35.1830 -35.1830 -35.1830 -35.1830 -35.1830 -35.1830 -35.1830
   -35.1817 -35.1817 -35.1782 -35.1782 -35.1782 -35.1782 -35.1778 -35.1778
   -35.1778 -35.1778 -35.1778 -35.1778 -35.1777 -35.1777 -35.1777 -35.1777
   -35.1777 -35.1777 -35.1774 -35.1774 -35.1774 -35.1774 -35.1767 -35.1767
   -35.1767 -35.1767 -35.1767 -35.1767 -35.1767 -35.1767 -35.1767 -35.1767
   -35.1767 -35.1767 -35.1762 -35.1762 -35.1761 -35.1761 -35.1761 -35.1761
   -35.1761 -35.1761 -35.1761 -35.1761 -35.1759 -35.1759 -35.1759 -35.1759
   -35.1759 -35.1759 -35.1759 -35.1759 -35.1759 -35.1759 -35.1759 -35.1759
   -14.2029 -14.2029 -14.2029 -14.2029 -14.2029 -14.2029 -14.2018 -14.2018
   -14.2018 -14.2018 -14.2018 -14.2018 -14.2003 -14.2003 -14.2003 -14.2003
   -14.1992 -14.1992 -14.1992 -14.1992 -14.1964 -14.1964 -14.1964 -14.1964
   -14.1964 -14.1964 -14.1961 -14.1961 -14.1961 -14.1961 -14.1961 -14.1961
   -14.1960 -14.1960 -14.1960 -14.1960 -14.1960 -14.1960 -14.1960 -14.1960
   -14.1953 -14.1953 -14.1953 -14.1953 -14.1953 -14.1953 -14.1948 -14.1948
   -14.1948 -14.1948 -14.1947 -14.1947 -14.1947 -14.1947 -14.1947 -14.1947
   -14.1920 -14.1920 -14.1920 -14.1920 -14.1920 -14.1920 -14.1906 -14.1906
   -14.1906 -14.1906 -14.1906 -14.1906 -14.1906 -14.1906 -14.1906 -14.1906
   -14.1766 -14.1766 -14.1748 -14.1748 -14.1748 -14.1748 -14.1748 -14.1748
   -14.1747 -14.1747 -14.1747 -14.1747 -14.1747 -14.1747 -14.1741 -14.1741
   -14.1713 -14.1713 -14.1713 -14.1713 -14.1713 -14.1713 -14.1713 -14.1713
   -14.1711 -14.1711 -14.1711 -14.1711 -14.1711 -14.1711 -14.1710 -14.1710
   -14.1710 -14.1710 -14.1710 -14.1710 -14.1609 -14.1609 -14.1609 -14.1609
   -14.1587 -14.1587 -14.1587 -14.1587 -14.1575 -14.1575 -14.1575 -14.1575
   -14.1575 -14.1575 -14.1573 -14.1573 -14.1573 -14.1573 -14.1573 -14.1573
   -14.1570 -14.1570 -14.1570 -14.1570 -14.1570 -14.1570 -14.1562 -14.1561
   -14.1561 -14.1561 -14.1561 -14.1561 -14.1507 -14.1507 -14.1507 -14.1507
   -14.1507 -14.1507 -14.1507 -14.1507 -14.1505 -14.1505 -14.1505 -14.1505
   -14.1505 -14.1505 -14.1494 -14.1494 -14.1494 -14.1494 -14.1494 -14.1494
   -14.1462 -14.1462 -14.1462 -14.1462 -14.1457 -14.1457 -14.1457 -14.1457
   -14.1442 -14.1442 -14.1441 -14.1441 -14.1441 -14.1441 -14.1437 -14.1437
   -14.1437 -14.1437 -14.1437 -14.1437  -3.6195  -3.6195  -3.1018  -3.1018
    -3.1018  -3.1018  -3.1018  -3.1018  -3.0981  -3.0981  -3.0981  -3.0981
    -3.0981  -3.0981  -2.8912  -2.8912  -2.6374  -2.6374  -2.6374  -2.6374
    -2.6374  -2.6374  -2.6374  -2.6374  -2.6359  -2.6359  -2.6359  -2.6359
    -2.6359  -2.6359  -2.6304  -2.6304  -2.6304  -2.6304  -2.6304  -2.6304
     3.4165   3.4165   3.4165   3.4165   3.4165   3.4165   3.4395   3.4395
     3.5932   3.5932   3.5932   3.5932   3.5932   3.5932   3.7053   3.7053
     3.7053   3.7053   3.8943   3.8943   3.8943   3.8943   3.8943   3.8943
     3.8943   3.8943   4.0467   4.0467   4.0467   4.0468   4.0468   4.0468
     4.2502   4.2502   4.2502   4.2502   4.2502   4.2502   4.9184   4.9184
     4.9184   4.9184   4.9184   4.9184   4.9986   4.9986   4.9986   4.9986
     4.9986   4.9986   5.1466   5.1466   5.1466   5.1466   6.0629   6.0629
     6.0629   6.0629   6.0629   6.0629   6.0860   6.0860   6.0860   6.0860
     6.0860   6.0860   6.2231   6.2231   6.2231   6.2231   6.2231   6.2231
     6.2231   6.2231   6.3071   6.3071   7.0202   7.0203   7.0203   7.0203
     7.0203   7.0203   7.0248   7.0248   7.0248   7.0248   7.0248   7.0248
     7.0956   7.0956   7.0956   7.0956   7.0956   7.0956   7.1183   7.1183
     7.1183   7.1183   7.1469   7.1470   7.1470   7.1470   7.1470   7.1470
     7.6513   7.6513   7.6513   7.6513   8.1416   8.1416   8.1416   8.1416
     8.1416   8.1416   8.8695   8.8695   8.8695   8.8695   8.8695   8.8695
     8.8788   8.8788   8.9940   8.9940   8.9940   8.9940   9.1929   9.1930
     9.1930   9.1930   9.1930   9.1930   9.3842   9.3842   9.4877   9.4877
     9.4877   9.4877   9.4877   9.4877  10.1817  10.1817  10.1817  10.1817
    10.1817  10.1817  10.7589  10.7589  10.7589  10.7589  10.7589  10.7589
    10.7589  10.7589  10.9148  10.9148  10.9148  10.9148  10.9148  10.9148
    10.9408  10.9408  10.9408  10.9408  11.4794  11.4794  11.4794  11.4795
    11.4795  11.4795  11.6184  11.6184  11.6184  11.6184  11.6184  11.6184
    11.6876  11.6876  11.7697  11.7697  11.7697  11.7697  11.7697  11.7697
    11.8732  11.8732  11.8732  11.8732  11.8732  11.8732  11.9709  11.9709
    11.9709  11.9709  12.1342  12.1342  12.1342  12.1342  12.3412  12.3412
    12.6323  12.6323  12.6323  12.6324  12.6324  12.6325  12.8331  12.8331
    12.8332  12.8332  12.8798  12.8801  12.8806  12.8807  12.8807  12.8807

     occupation numbers 
     1.0000   1.0000   1.0000   1.0000   1.0000   1.0000   1.0000   1.0000
     1.0000   1.0000   1.0000   1.0000   1.0000   1.0000   1.0000   1.0000
     1.0000   1.0000   1.0000   1.0000   1.0000   1.0000   1.0000   1.0000
     1.0000   1.0000   1.0000   1.0000   1.0000   1.0000   1.0000   1.0000
     1.0000   1.0000   1.0000   1.0000   1.0000   1.0000   1.0000   1.0000
     1.0000   1.0000   1.0000   1.0000   1.0000   1.0000   1.0000   1.0000
     1.0000   1.0000   1.0000   1.0000   1.0000   1.0000   1.0000   1.0000
     1.0000   1.0000   1.0000   1.0000   1.0000   1.0000   1.0000   1.0000
     1.0000   1.0000   1.0000   1.0000   1.0000   1.0000   1.0000   1.0000
     1.0000   1.0000   1.0000   1.0000   1.0000   1.0000   1.0000   1.0000
     1.0000   1.0000   1.0000   1.0000   1.0000   1.0000   1.0000   1.0000
     1.0000   1.0000   1.0000   1.0000   1.0000   1.0000   1.0000   1.0000
     1.0000   1.0000   1.0000   1.0000   1.0000   1.0000   1.0000   1.0000
     1.0000   1.0000   1.0000   1.0000   1.0000   1.0000   1.0000   1.0000
     1.0000   1.0000   1.0000   1.0000   1.0000   1.0000   1.0000   1.0000
     1.0000   1.0000   1.0000   1.0000   1.0000   1.0000   1.0000   1.0000
     1.0000   1.0000   1.0000   1.0000   1.0000   1.0000   1.0000   1.0000
     1.0000   1.0000   1.0000   1.0000   1.0000   1.0000   1.0000   1.0000
     1.0000   1.0000   1.0000   1.0000   1.0000   1.0000   1.0000   1.0000
     1.0000   1.0000   1.0000   1.0000   1.0000   1.0000   1.0000   1.0000
     1.0000   1.0000   1.0000   1.0000   1.0000   1.0000   1.0000   1.0000
     1.0000   1.0000   1.0000   1.0000   1.0000   1.0000   1.0000   1.0000
     1.0000   1.0000   1.0000   1.0000   1.0000   1.0000   1.0000   1.0000
     1.0000   1.0000   1.0000   1.0000   1.0000   1.0000   1.0000   1.0000
     1.0000   1.0000   1.0000   1.0000   1.0000   1.0000   1.0000   1.0000
     1.0000   1.0000   1.0000   1.0000   1.0000   1.0000   1.0000   1.0000
     1.0000   1.0000   1.0000   1.0000   1.0000   1.0000   1.0000   1.0000
     1.0000   1.0000   1.0000   1.0000   1.0000   1.0000   1.0000   1.0000
     1.0000   1.0000   1.0000   1.0000   1.0000   1.0000   1.0000   1.0000
     1.0000   1.0000   1.0000   1.0000   1.0000   1.0000   1.0000   1.0000
     1.0000   1.0000   1.0000   1.0000   1.0000   1.0000   1.0000   1.0000
     1.0000   1.0000   1.0000   1.0000   1.0000   1.0000   1.0000   1.0000
     1.0000   1.0000   1.0000   1.0000   1.0000   1.0000   1.0000   1.0000
     1.0000   1.0000   1.0000   1.0000   1.0000   1.0000   1.0000   1.0000
     1.0000   1.0000   1.0000   1.0000   1.0000   1.0000   1.0000   1.0000
     1.0000   1.0000   1.0000   1.0000   1.0000   1.0000   1.0000   1.0000
     1.0000   1.0000   1.0000   1.0000   1.0000   1.0000   1.0000   1.0000
     1.0000   1.0000   1.0000   1.0000   1.0000   1.0000   1.0000   1.0000
     1.0000   1.0000   1.0000   1.0000   1.0000   1.0000   1.0000   1.0000
     1.0000   1.0000   1.0000   1.0000   1.0000   1.0000   1.0000   1.0000
     1.0000   1.0000   1.0000   1.0000   1.0000   1.0000   1.0000   1.0000
     1.0000   1.0000   1.0000   1.0000   1.0000   1.0000   1.0000   1.0000
     1.0000   1.0000   1.0000   1.0000   1.0000   1.0000   1.0000   1.0000
     1.0000   1.0000   1.0000   1.0000   1.0000   1.0000   1.0000   1.0000
     1.0000   1.0000   1.0000   1.0000   1.0000   1.0000   1.0000   1.0000
     1.0000   1.0000   1.0000   1.0000   1.0000   1.0000   1.0000   1.0000
     1.0000   1.0000   1.0000   1.0000   1.0000   1.0000   1.0000   1.0000
     1.0000   1.0000   1.0000   1.0000   1.0000   1.0000   1.0000   1.0000
     1.0000   1.0000   1.0000   1.0000   1.0000   1.0000   1.0000   1.0000
     1.0000   1.0000   1.0000   1.0000   1.0000   1.0000   1.0000   1.0000
     1.0000   1.0000   1.0000   1.0000   1.0000   1.0000   1.0000   1.0000
     1.0000   1.0000   1.0000   1.0000   1.0000   1.0000   1.0000   1.0000
     1.0000   1.0000   1.0000   1.0000   1.0000   1.0000   1.0000   1.0000
     1.0000   1.0000   1.0000   1.0000   1.0000   1.0000   1.0000   1.0000
     1.0000   1.0000   1.0000   1.0000   1.0000   1.0000   1.0000   1.0000
     1.0000   1.0000   1.0000   1.0000   1.0000   1.0000   1.0000   1.0000
     1.0000   1.0000   1.0000   1.0000   1.0000   1.0000   1.0000   1.0000
     1.0000   1.0000   1.0000   1.0000   1.0000   1.0000   1.0000   1.0000
     1.0000   1.0000   1.0000   1.0000   1.0000   1.0000   1.0000   1.0000
     1.0000   1.0000   1.0000   1.0000   1.0000   1.0000   1.0000   1.0000
     1.0000   1.0000   1.0000   1.0000   1.0000   1.0000   1.0000   1.0000
     1.0000   1.0000   1.0000   1.0000   1.0000   1.0000   1.0000   1.0000
     1.0000   1.0000   1.0000   1.0000   1.0000   1.0000   1.0000   1.0000
     1.0000   1.0000   1.0000   1.0000   1.0000   1.0000   1.0000   1.0000
     1.0000   1.0000   1.0000   1.0000   1.0000   1.0000   1.0000   1.0000
     1.0000   1.0000   1.0000   1.0000   1.0000   1.0000   1.0000   1.0000
     1.0000   1.0000   1.0000   1.0000   1.0000   1.0000   1.0000   1.0000
     1.0007   1.0007   1.0007   1.0007  -0.0250  -0.0250  -0.0250  -0.0250
    -0.0250  -0.0250  -0.0000  -0.0000  -0.0000  -0.0000  -0.0000  -0.0000
    -0.0000  -0.0000  -0.0000  -0.0000  -0.0000  -0.0000  -0.0000  -0.0000
    -0.0000  -0.0000  -0.0000  -0.0000  -0.0000  -0.0000  -0.0000  -0.0000
    -0.0000  -0.0000  -0.0000  -0.0000  -0.0000  -0.0000  -0.0000  -0.0000
    -0.0000  -0.0000  -0.0000  -0.0000  -0.0000  -0.0000  -0.0000  -0.0000
    -0.0000  -0.0000  -0.0000  -0.0000  -0.0000  -0.0000  -0.0000  -0.0000
    -0.0000  -0.0000  -0.0000  -0.0000  -0.0000  -0.0000  -0.0000  -0.0000
    -0.0000  -0.0000  -0.0000  -0.0000  -0.0000  -0.0000  -0.0000  -0.0000
    -0.0000  -0.0000  -0.0000  -0.0000  -0.0000  -0.0000  -0.0000  -0.0000
    -0.0000  -0.0000  -0.0000  -0.0000  -0.0000  -0.0000  -0.0000  -0.0000
    -0.0000  -0.0000  -0.0000  -0.0000  -0.0000  -0.0000  -0.0000  -0.0000
    -0.0000  -0.0000  -0.0000  -0.0000  -0.0000  -0.0000  -0.0000  -0.0000
    -0.0000  -0.0000  -0.0000  -0.0000  -0.0000  -0.0000  -0.0000  -0.0000

          k = 0.0000-0.5774 0.0000 (554524 PWs)   bands (ev):

   -68.3028 -68.3028 -68.3028 -68.3028 -68.3028 -68.3028 -68.3028 -68.3028
   -68.3028 -68.3028 -68.3028 -68.3028 -68.3028 -68.3028 -68.3028 -68.3028
   -68.3028 -68.3028 -67.7522 -67.7522 -67.7522 -67.7522 -67.7521 -67.7521
   -67.7521 -67.7521 -67.7519 -67.7519 -67.7519 -67.7519 -67.7519 -67.7519
   -67.7519 -67.7519 -67.7519 -67.7519 -67.7515 -67.7515 -67.7515 -67.7515
   -67.7515 -67.7515 -67.7515 -67.7515 -67.7515 -67.7515 -67.7513 -67.7513
   -67.7513 -67.7513 -67.7512 -67.7512 -67.7512 -67.7512 -35.7144 -35.7144
   -35.7144 -35.7144 -35.7144 -35.7144 -35.7144 -35.7143 -35.7143 -35.7143
   -35.7143 -35.7143 -35.7143 -35.7143 -35.7143 -35.7143 -35.7143 -35.7143
   -35.7081 -35.7081 -35.7081 -35.7081 -35.7081 -35.7081 -35.7081 -35.7081
   -35.7081 -35.7081 -35.7081 -35.7081 -35.7080 -35.7080 -35.7080 -35.7080
   -35.7080 -35.7080 -35.7080 -35.7080 -35.7080 -35.7080 -35.7080 -35.7080
   -35.7080 -35.7080 -35.7080 -35.7080 -35.7080 -35.7080 -35.7080 -35.7080
   -35.7080 -35.7080 -35.7080 -35.7079 -35.1848 -35.1848 -35.1848 -35.1848
   -35.1847 -35.1847 -35.1847 -35.1847 -35.1847 -35.1847 -35.1845 -35.1845
   -35.1844 -35.1844 -35.1844 -35.1844 -35.1844 -35.1844 -35.1844 -35.1844
   -35.1844 -35.1844 -35.1844 -35.1844 -35.1843 -35.1843 -35.1843 -35.1843
   -35.1841 -35.1841 -35.1841 -35.1841 -35.1841 -35.1841 -35.1841 -35.1841
   -35.1835 -35.1835 -35.1835 -35.1835 -35.1834 -35.1834 -35.1834 -35.1834
   -35.1833 -35.1833 -35.1828 -35.1828 -35.1828 -35.1828 -35.1822 -35.1822
   -35.1822 -35.1822 -35.1780 -35.1780 -35.1780 -35.1780 -35.1778 -35.1778
   -35.1778 -35.1778 -35.1776 -35.1776 -35.1776 -35.1776 -35.1776 -35.1776
   -35.1776 -35.1776 -35.1775 -35.1775 -35.1775 -35.1775 -35.1775 -35.1775
   -35.1770 -35.1770 -35.1770 -35.1770 -35.1763 -35.1763 -35.1763 -35.1763
   -35.1763 -35.1763 -35.1763 -35.1763 -35.1762 -35.1762 -35.1761 -35.1761
   -35.1761 -35.1761 -35.1760 -35.1760 -35.1760 -35.1760 -35.1760 -35.1760
   -35.1759 -35.1759 -35.1759 -35.1759 -35.1759 -35.1759 -35.1759 -35.1759
   -14.2040 -14.2030 -14.2023 -14.2023 -14.2023 -14.2023 -14.2013 -14.2013
   -14.2013 -14.2013 -14.2010 -14.2010 -14.2009 -14.2009 -14.2005 -14.2005
   -14.1998 -14.1998 -14.1981 -14.1980 -14.1979 -14.1979 -14.1973 -14.1973
   -14.1970 -14.1970 -14.1970 -14.1968 -14.1968 -14.1968 -14.1968 -14.1965
   -14.1965 -14.1965 -14.1965 -14.1956 -14.1956 -14.1956 -14.1956 -14.1947
   -14.1947 -14.1947 -14.1947 -14.1947 -14.1947 -14.1944 -14.1944 -14.1944
   -14.1944 -14.1942 -14.1942 -14.1939 -14.1939 -14.1939 -14.1939 -14.1935
   -14.1932 -14.1932 -14.1931 -14.1931 -14.1926 -14.1926 -14.1916 -14.1916
   -14.1916 -14.1916 -14.1909 -14.1901 -14.1901 -14.1901 -14.1901 -14.1892
   -14.1760 -14.1760 -14.1754 -14.1754 -14.1751 -14.1748 -14.1748 -14.1740
   -14.1740 -14.1739 -14.1739 -14.1739 -14.1739 -14.1739 -14.1735 -14.1735
   -14.1730 -14.1730 -14.1730 -14.1730 -14.1729 -14.1729 -14.1722 -14.1722
   -14.1719 -14.1719 -14.1707 -14.1707 -14.1707 -14.1707 -14.1704 -14.1704
   -14.1704 -14.1704 -14.1702 -14.1695 -14.1600 -14.1600 -14.1599 -14.1599
   -14.1597 -14.1597 -14.1597 -14.1597 -14.1588 -14.1588 -14.1581 -14.1581
   -14.1581 -14.1581 -14.1581 -14.1581 -14.1576 -14.1576 -14.1572 -14.1572
   -14.1570 -14.1570 -14.1570 -14.1570 -14.1562 -14.1555 -14.1542 -14.1539
   -14.1539 -14.1539 -14.1539 -14.1533 -14.1533 -14.1533 -14.1533 -14.1531
   -14.1526 -14.1524 -14.1506 -14.1506 -14.1506 -14.1506 -14.1504 -14.1504
   -14.1504 -14.1504 -14.1487 -14.1487 -14.1487 -14.1487 -14.1474 -14.1474
   -14.1473 -14.1473 -14.1457 -14.1457 -14.1453 -14.1453 -14.1451 -14.1451
   -14.1448 -14.1448 -14.1448 -14.1448 -14.1444 -14.1444 -14.1436 -14.1436
   -14.1436 -14.1436 -14.1436 -14.1425  -3.5638  -3.5638  -3.3055  -3.3055
    -3.2873  -3.2873  -3.0680  -3.0680  -3.0138  -3.0138  -2.8995  -2.8995
    -2.8995  -2.8995  -2.8763  -2.8366  -2.8366  -2.7708  -2.7708  -2.7708
    -2.7708  -2.7558  -2.6665  -2.6596  -2.6596  -2.6596  -2.6596  -2.6563
    -2.6563  -2.5615  -2.5615  -2.5559  -2.5350  -2.5350  -2.5350  -2.5350
     2.9718   3.2059   3.2223   3.2223   3.2829   3.2829   3.2829   3.2829
     3.3911   3.5033   3.5033   3.5033   3.5033   3.5780   3.5780   3.5780
     3.5780   3.6955   3.6955   3.9552   3.9552   4.0339   4.0339   4.1612
     4.2832   4.2832   4.2832   4.2832   4.3733   4.3733   4.5525   4.5525
     4.5659   4.5659   4.5659   4.5659   4.6103   4.6103   4.6328   4.6328
     4.6892   4.9428   4.9428   4.9428   4.9428   5.0635   5.0635   5.0635
     5.0635   5.4227   5.4227   5.5001   5.5001   5.5001   5.5001   5.7109
     5.8026   5.8059   5.8059   6.0118   6.0118   6.0619   6.0619   6.0672
     6.0672   6.1192   6.1192   6.1192   6.1192   6.1378   6.1616   6.3387
     6.3387   6.3486   6.3486   6.3486   6.3486   6.4708   6.4708   6.4737
     6.4737   6.4933   6.4933   6.5061   6.5229   6.5229   6.5315   6.7425
     6.7425   6.7425   6.7425   6.8738   6.8738   6.8738   6.8738   6.9114
     6.9114   6.9287   6.9287   7.1570   7.1570   7.1911   7.1911   7.2691
     7.7418   7.7418   7.8281   7.8281   8.2793   8.4087   8.8503   8.8503
     8.8503   8.8503   9.0700   9.1762   9.1762   9.1762   9.1762   9.3647
     9.3647   9.5389   9.5389   9.6150   9.6150   9.6150   9.6150   9.6203
     9.6203   9.6228   9.6228   9.6272   9.6272   9.6654   9.7024  10.0589
    10.0589  10.0636  10.0636  10.0636  10.0636  10.2356  10.2498  10.4492
    10.4492  10.5473  10.5473  10.6274  10.6274  10.7827  10.7827  10.7912
    10.7912  10.7912  10.7912  10.8409  10.8409  10.8505  10.8727  10.8727
    10.9339  10.9339  10.9339  10.9339  11.0564  11.0564  11.0982  11.0982
    11.0982  11.0982  11.2575  11.2575  11.2798  11.2798  11.2798  11.2798
    11.3092  11.3092  11.3303  11.3303  11.3763  11.3763  11.4341  11.4341
    11.4976  11.4976  11.6028  11.6028  11.7068  11.7068  11.8332  11.8332
    11.8332  11.8332  11.9047  11.9047  12.0286  12.0286  12.0286  12.0286
    12.1205  12.1205  12.3031  12.3031  12.3523  12.3523  12.3544  12.3544
    12.4865  12.4865  12.5645  12.5645  12.5751  12.6921  12.6921  12.8108

     occupation numbers 
     1.0000   1.0000   1.0000   1.0000   1.0000   1.0000   1.0000   1.0000
     1.0000   1.0000   1.0000   1.0000   1.0000   1.0000   1.0000   1.0000
     1.0000   1.0000   1.0000   1.0000   1.0000   1.0000   1.0000   1.0000
     1.0000   1.0000   1.0000   1.0000   1.0000   1.0000   1.0000   1.0000
     1.0000   1.0000   1.0000   1.0000   1.0000   1.0000   1.0000   1.0000
     1.0000   1.0000   1.0000   1.0000   1.0000   1.0000   1.0000   1.0000
     1.0000   1.0000   1.0000   1.0000   1.0000   1.0000   1.0000   1.0000
     1.0000   1.0000   1.0000   1.0000   1.0000   1.0000   1.0000   1.0000
     1.0000   1.0000   1.0000   1.0000   1.0000   1.0000   1.0000   1.0000
     1.0000   1.0000   1.0000   1.0000   1.0000   1.0000   1.0000   1.0000
     1.0000   1.0000   1.0000   1.0000   1.0000   1.0000   1.0000   1.0000
     1.0000   1.0000   1.0000   1.0000   1.0000   1.0000   1.0000   1.0000
     1.0000   1.0000   1.0000   1.0000   1.0000   1.0000   1.0000   1.0000
     1.0000   1.0000   1.0000   1.0000   1.0000   1.0000   1.0000   1.0000
     1.0000   1.0000   1.0000   1.0000   1.0000   1.0000   1.0000   1.0000
     1.0000   1.0000   1.0000   1.0000   1.0000   1.0000   1.0000   1.0000
     1.0000   1.0000   1.0000   1.0000   1.0000   1.0000   1.0000   1.0000
     1.0000   1.0000   1.0000   1.0000   1.0000   1.0000   1.0000   1.0000
     1.0000   1.0000   1.0000   1.0000   1.0000   1.0000   1.0000   1.0000
     1.0000   1.0000   1.0000   1.0000   1.0000   1.0000   1.0000   1.0000
     1.0000   1.0000   1.0000   1.0000   1.0000   1.0000   1.0000   1.0000
     1.0000   1.0000   1.0000   1.0000   1.0000   1.0000   1.0000   1.0000
     1.0000   1.0000   1.0000   1.0000   1.0000   1.0000   1.0000   1.0000
     1.0000   1.0000   1.0000   1.0000   1.0000   1.0000   1.0000   1.0000
     1.0000   1.0000   1.0000   1.0000   1.0000   1.0000   1.0000   1.0000
     1.0000   1.0000   1.0000   1.0000   1.0000   1.0000   1.0000   1.0000
     1.0000   1.0000   1.0000   1.0000   1.0000   1.0000   1.0000   1.0000
     1.0000   1.0000   1.0000   1.0000   1.0000   1.0000   1.0000   1.0000
     1.0000   1.0000   1.0000   1.0000   1.0000   1.0000   1.0000   1.0000
     1.0000   1.0000   1.0000   1.0000   1.0000   1.0000   1.0000   1.0000
     1.0000   1.0000   1.0000   1.0000   1.0000   1.0000   1.0000   1.0000
     1.0000   1.0000   1.0000   1.0000   1.0000   1.0000   1.0000   1.0000
     1.0000   1.0000   1.0000   1.0000   1.0000   1.0000   1.0000   1.0000
     1.0000   1.0000   1.0000   1.0000   1.0000   1.0000   1.0000   1.0000
     1.0000   1.0000   1.0000   1.0000   1.0000   1.0000   1.0000   1.0000
     1.0000   1.0000   1.0000   1.0000   1.0000   1.0000   1.0000   1.0000
     1.0000   1.0000   1.0000   1.0000   1.0000   1.0000   1.0000   1.0000
     1.0000   1.0000   1.0000   1.0000   1.0000   1.0000   1.0000   1.0000
     1.0000   1.0000   1.0000   1.0000   1.0000   1.0000   1.0000   1.0000
     1.0000   1.0000   1.0000   1.0000   1.0000   1.0000   1.0000   1.0000
     1.0000   1.0000   1.0000   1.0000   1.0000   1.0000   1.0000   1.0000
     1.0000   1.0000   1.0000   1.0000   1.0000   1.0000   1.0000   1.0000
     1.0000   1.0000   1.0000   1.0000   1.0000   1.0000   1.0000   1.0000
     1.0000   1.0000   1.0000   1.0000   1.0000   1.0000   1.0000   1.0000
     1.0000   1.0000   1.0000   1.0000   1.0000   1.0000   1.0000   1.0000
     1.0000   1.0000   1.0000   1.0000   1.0000   1.0000   1.0000   1.0000
     1.0000   1.0000   1.0000   1.0000   1.0000   1.0000   1.0000   1.0000
     1.0000   1.0000   1.0000   1.0000   1.0000   1.0000   1.0000   1.0000
     1.0000   1.0000   1.0000   1.0000   1.0000   1.0000   1.0000   1.0000
     1.0000   1.0000   1.0000   1.0000   1.0000   1.0000   1.0000   1.0000
     1.0000   1.0000   1.0000   1.0000   1.0000   1.0000   1.0000   1.0000
     1.0000   1.0000   1.0000   1.0000   1.0000   1.0000   1.0000   1.0000
     1.0000   1.0000   1.0000   1.0000   1.0000   1.0000   1.0000   1.0000
     1.0000   1.0000   1.0000   1.0000   1.0000   1.0000   1.0000   1.0000
     1.0000   1.0000   1.0000   1.0000   1.0000   1.0000   1.0000   1.0000
     1.0000   1.0000   1.0000   1.0000   1.0000   1.0000   1.0000   1.0000
     1.0000   1.0000   1.0000   1.0000   1.0000   1.0000   1.0000   1.0000
     1.0000   1.0000   1.0000   1.0000   1.0000   1.0000   1.0000   1.0000
     1.0000   1.0000   1.0000   1.0000   1.0000   1.0000   1.0000   1.0000
     1.0000   1.0000   1.0000   1.0000   1.0000   1.0000   1.0000   1.0000
     1.0000   1.0000   1.0000   1.0000   1.0000   1.0000   1.0000   1.0000
     1.0000   1.0000   1.0000   1.0000   1.0000   1.0000   1.0000   1.0000
     1.0000   1.0000   1.0000   1.0000   1.0000   1.0000   1.0000   1.0000
     1.0000   1.0000   1.0000   1.0000   1.0000   1.0000   1.0000   1.0000
     1.0000   1.0000   1.0000   1.0000   1.0000   1.0000   1.0000   1.0000
     1.0000   1.0000   1.0000   1.0000   1.0000   1.0000   1.0000   1.0000
     1.0000   1.0000   1.0000   1.0000   1.0000   1.0000   1.0000   1.0000
     1.0097   1.0097   1.0346   1.0346  -0.0077  -0.0001  -0.0000  -0.0000
    -0.0000  -0.0000  -0.0000  -0.0000  -0.0000  -0.0000  -0.0000  -0.0000
    -0.0000  -0.0000  -0.0000  -0.0000  -0.0000  -0.0000  -0.0000  -0.0000
    -0.0000  -0.0000  -0.0000  -0.0000  -0.0000  -0.0000  -0.0000  -0.0000
    -0.0000  -0.0000  -0.0000  -0.0000  -0.0000  -0.0000  -0.0000  -0.0000
    -0.0000  -0.0000  -0.0000  -0.0000  -0.0000  -0.0000  -0.0000  -0.0000
    -0.0000  -0.0000  -0.0000  -0.0000  -0.0000  -0.0000  -0.0000  -0.0000
    -0.0000  -0.0000  -0.0000  -0.0000  -0.0000  -0.0000  -0.0000  -0.0000
    -0.0000  -0.0000  -0.0000  -0.0000  -0.0000  -0.0000  -0.0000  -0.0000
    -0.0000  -0.0000  -0.0000  -0.0000  -0.0000  -0.0000  -0.0000  -0.0000
    -0.0000  -0.0000  -0.0000  -0.0000  -0.0000  -0.0000  -0.0000  -0.0000
    -0.0000  -0.0000  -0.0000  -0.0000  -0.0000  -0.0000  -0.0000  -0.0000
    -0.0000  -0.0000  -0.0000  -0.0000  -0.0000  -0.0000  -0.0000  -0.0000
    -0.0000  -0.0000  -0.0000  -0.0000  -0.0000  -0.0000  -0.0000  -0.0000

          k = 0.0000-0.5774-0.4746 (554528 PWs)   bands (ev):

   -68.3028 -68.3028 -68.3028 -68.3028 -68.3028 -68.3028 -68.3028 -68.3028
   -68.3028 -68.3028 -68.3028 -68.3028 -68.3028 -68.3028 -68.3028 -68.3028
   -68.3028 -68.3028 -67.7522 -67.7522 -67.7522 -67.7522 -67.7521 -67.7521
   -67.7521 -67.7521 -67.7519 -67.7519 -67.7519 -67.7519 -67.7519 -67.7519
   -67.7519 -67.7519 -67.7519 -67.7519 -67.7515 -67.7515 -67.7515 -67.7515
   -67.7515 -67.7515 -67.7515 -67.7515 -67.7515 -67.7515 -67.7513 -67.7513
   -67.7513 -67.7513 -67.7512 -67.7512 -67.7512 -67.7512 -35.7144 -35.7144
   -35.7144 -35.7144 -35.7144 -35.7144 -35.7144 -35.7143 -35.7143 -35.7143
   -35.7143 -35.7143 -35.7143 -35.7143 -35.7143 -35.7143 -35.7143 -35.7143
   -35.7081 -35.7081 -35.7081 -35.7081 -35.7081 -35.7081 -35.7081 -35.7081
   -35.7081 -35.7081 -35.7081 -35.7081 -35.7080 -35.7080 -35.7080 -35.7080
   -35.7080 -35.7080 -35.7080 -35.7080 -35.7080 -35.7080 -35.7080 -35.7080
   -35.7080 -35.7080 -35.7080 -35.7080 -35.7080 -35.7080 -35.7080 -35.7080
   -35.7080 -35.7080 -35.7080 -35.7079 -35.1848 -35.1848 -35.1848 -35.1848
   -35.1848 -35.1847 -35.1847 -35.1847 -35.1847 -35.1847 -35.1845 -35.1845
   -35.1844 -35.1844 -35.1844 -35.1844 -35.1844 -35.1844 -35.1844 -35.1844
   -35.1844 -35.1844 -35.1844 -35.1844 -35.1843 -35.1843 -35.1843 -35.1843
   -35.1841 -35.1841 -35.1841 -35.1841 -35.1841 -35.1841 -35.1841 -35.1841
   -35.1835 -35.1835 -35.1835 -35.1835 -35.1834 -35.1834 -35.1834 -35.1834
   -35.1833 -35.1833 -35.1828 -35.1828 -35.1828 -35.1828 -35.1822 -35.1822
   -35.1822 -35.1822 -35.1780 -35.1780 -35.1780 -35.1780 -35.1778 -35.1778
   -35.1778 -35.1778 -35.1776 -35.1776 -35.1776 -35.1776 -35.1776 -35.1776
   -35.1776 -35.1776 -35.1775 -35.1775 -35.1775 -35.1775 -35.1775 -35.1775
   -35.1770 -35.1770 -35.1770 -35.1770 -35.1763 -35.1763 -35.1763 -35.1763
   -35.1763 -35.1763 -35.1763 -35.1763 -35.1762 -35.1762 -35.1761 -35.1761
   -35.1761 -35.1761 -35.1760 -35.1760 -35.1760 -35.1760 -35.1760 -35.1760
   -35.1759 -35.1759 -35.1759 -35.1759 -35.1759 -35.1759 -35.1759 -35.1759
   -14.2035 -14.2035 -14.2021 -14.2021 -14.2021 -14.2021 -14.2016 -14.2016
   -14.2016 -14.2016 -14.2010 -14.2010 -14.2010 -14.2010 -14.2007 -14.2007
   -14.1995 -14.1995 -14.1983 -14.1983 -14.1973 -14.1973 -14.1973 -14.1973
   -14.1969 -14.1969 -14.1969 -14.1969 -14.1969 -14.1969 -14.1962 -14.1962
   -14.1962 -14.1962 -14.1962 -14.1962 -14.1957 -14.1957 -14.1948 -14.1948
   -14.1948 -14.1948 -14.1947 -14.1947 -14.1947 -14.1947 -14.1947 -14.1947
   -14.1946 -14.1946 -14.1944 -14.1944 -14.1942 -14.1942 -14.1942 -14.1942
   -14.1931 -14.1931 -14.1926 -14.1926 -14.1926 -14.1926 -14.1909 -14.1909
   -14.1909 -14.1909 -14.1906 -14.1906 -14.1906 -14.1905 -14.1898 -14.1898
   -14.1758 -14.1758 -14.1757 -14.1757 -14.1746 -14.1746 -14.1745 -14.1745
   -14.1745 -14.1745 -14.1735 -14.1735 -14.1735 -14.1735 -14.1735 -14.1735
   -14.1735 -14.1735 -14.1732 -14.1732 -14.1731 -14.1731 -14.1720 -14.1720
   -14.1720 -14.1720 -14.1705 -14.1705 -14.1705 -14.1705 -14.1705 -14.1705
   -14.1705 -14.1705 -14.1698 -14.1698 -14.1602 -14.1602 -14.1600 -14.1600
   -14.1596 -14.1596 -14.1596 -14.1596 -14.1586 -14.1586 -14.1586 -14.1586
   -14.1576 -14.1576 -14.1576 -14.1576 -14.1576 -14.1576 -14.1576 -14.1576
   -14.1573 -14.1573 -14.1573 -14.1573 -14.1558 -14.1558 -14.1539 -14.1539
   -14.1538 -14.1538 -14.1538 -14.1538 -14.1533 -14.1533 -14.1532 -14.1532
   -14.1523 -14.1523 -14.1509 -14.1509 -14.1509 -14.1509 -14.1501 -14.1501
   -14.1501 -14.1501 -14.1487 -14.1487 -14.1487 -14.1487 -14.1476 -14.1476
   -14.1471 -14.1471 -14.1457 -14.1457 -14.1453 -14.1453 -14.1447 -14.1447
   -14.1447 -14.1447 -14.1443 -14.1443 -14.1443 -14.1443 -14.1441 -14.1441
   -14.1441 -14.1441 -14.1430 -14.1430  -3.4696  -3.4696  -3.4691  -3.4691
    -3.2067  -3.2067  -3.2067  -3.2067  -2.8527  -2.8527  -2.8527  -2.8527
    -2.8498  -2.8498  -2.8498  -2.8498  -2.8316  -2.8316  -2.8019  -2.8019
    -2.8010  -2.8010  -2.6703  -2.6703  -2.6703  -2.6703  -2.5956  -2.5956
    -2.5830  -2.5830  -2.5829  -2.5829  -2.5794  -2.5793  -2.5793  -2.5793
     3.0459   3.0459   3.3204   3.3204   3.3204   3.3204   3.3986   3.3986
     3.3986   3.3986   3.5788   3.5788   3.6051   3.6051   3.7220   3.7220
     3.7220   3.7220   3.7280   3.7280   3.8125   3.8125   3.8125   3.8125
     3.8979   3.8979   3.8979   3.8979   4.3966   4.3966   4.3966   4.3966
     4.7796   4.7796   4.7796   4.7796   4.8203   4.8203   4.8203   4.8203
     5.1617   5.1617   5.1617   5.1617   5.2434   5.2434   5.3095   5.3096
     5.4519   5.4519   5.5475   5.5475   5.5475   5.5475   5.5533   5.5533
     5.5533   5.5533   5.7857   5.7857   5.7947   5.7947   5.7947   5.7947
     5.8552   5.8552   5.9023   5.9023   5.9402   5.9402   5.9402   5.9402
     5.9621   5.9621   5.9621   5.9621   6.5101   6.5101   6.6176   6.6176
     6.6176   6.6176   6.6259   6.6259   6.6786   6.6786   6.8038   6.8038
     6.8038   6.8038   6.8242   6.8242   6.8242   6.8242   6.9417   6.9417
     7.2912   7.2912   7.3838   7.3838   7.3865   7.3865   7.3865   7.3865
     7.4560   7.4561   7.5649   7.5649   8.1252   8.1252   9.0321   9.0321
     9.0321   9.0321   9.0739   9.0739   9.1600   9.1600   9.2630   9.2630
     9.2630   9.2630   9.4783   9.4783   9.4783   9.4783   9.5657   9.5657
     9.9659   9.9659  10.0623  10.0623  10.1410  10.1410  10.1410  10.1411
    10.1767  10.1767  10.1767  10.1767  10.2097  10.2097  10.2097  10.2097
    10.2812  10.2812  10.2812  10.2812  10.4255  10.4255  10.4255  10.4255
    10.6653  10.6653  10.6653  10.6653  10.6870  10.6870  10.7739  10.7739
    10.9406  10.9406  10.9406  10.9406  11.1133  11.1134  11.1278  11.1278
    11.1278  11.1278  11.1979  11.1979  11.2390  11.2390  11.3371  11.3371
    11.4398  11.4398  11.4698  11.4698  11.4698  11.4698  11.4758  11.4758
    11.4817  11.4817  11.4817  11.4817  11.6215  11.6215  11.7441  11.7441
    11.7745  11.7745  11.8564  11.8564  11.8564  11.8564  12.0511  12.0511
    12.0585  12.0585  12.0585  12.0585  12.1889  12.1889  12.1890  12.1890
    12.4690  12.4690  12.6135  12.6135  12.7265  12.7425  12.7433  12.7433

     occupation numbers 
     1.0000   1.0000   1.0000   1.0000   1.0000   1.0000   1.0000   1.0000
     1.0000   1.0000   1.0000   1.0000   1.0000   1.0000   1.0000   1.0000
     1.0000   1.0000   1.0000   1.0000   1.0000   1.0000   1.0000   1.0000
     1.0000   1.0000   1.0000   1.0000   1.0000   1.0000   1.0000   1.0000
     1.0000   1.0000   1.0000   1.0000   1.0000   1.0000   1.0000   1.0000
     1.0000   1.0000   1.0000   1.0000   1.0000   1.0000   1.0000   1.0000
     1.0000   1.0000   1.0000   1.0000   1.0000   1.0000   1.0000   1.0000
     1.0000   1.0000   1.0000   1.0000   1.0000   1.0000   1.0000   1.0000
     1.0000   1.0000   1.0000   1.0000   1.0000   1.0000   1.0000   1.0000
     1.0000   1.0000   1.0000   1.0000   1.0000   1.0000   1.0000   1.0000
     1.0000   1.0000   1.0000   1.0000   1.0000   1.0000   1.0000   1.0000
     1.0000   1.0000   1.0000   1.0000   1.0000   1.0000   1.0000   1.0000
     1.0000   1.0000   1.0000   1.0000   1.0000   1.0000   1.0000   1.0000
     1.0000   1.0000   1.0000   1.0000   1.0000   1.0000   1.0000   1.0000
     1.0000   1.0000   1.0000   1.0000   1.0000   1.0000   1.0000   1.0000
     1.0000   1.0000   1.0000   1.0000   1.0000   1.0000   1.0000   1.0000
     1.0000   1.0000   1.0000   1.0000   1.0000   1.0000   1.0000   1.0000
     1.0000   1.0000   1.0000   1.0000   1.0000   1.0000   1.0000   1.0000
     1.0000   1.0000   1.0000   1.0000   1.0000   1.0000   1.0000   1.0000
     1.0000   1.0000   1.0000   1.0000   1.0000   1.0000   1.0000   1.0000
     1.0000   1.0000   1.0000   1.0000   1.0000   1.0000   1.0000   1.0000
     1.0000   1.0000   1.0000   1.0000   1.0000   1.0000   1.0000   1.0000
     1.0000   1.0000   1.0000   1.0000   1.0000   1.0000   1.0000   1.0000
     1.0000   1.0000   1.0000   1.0000   1.0000   1.0000   1.0000   1.0000
     1.0000   1.0000   1.0000   1.0000   1.0000   1.0000   1.0000   1.0000
     1.0000   1.0000   1.0000   1.0000   1.0000   1.0000   1.0000   1.0000
     1.0000   1.0000   1.0000   1.0000   1.0000   1.0000   1.0000   1.0000
     1.0000   1.0000   1.0000   1.0000   1.0000   1.0000   1.0000   1.0000
     1.0000   1.0000   1.0000   1.0000   1.0000   1.0000   1.0000   1.0000
     1.0000   1.0000   1.0000   1.0000   1.0000   1.0000   1.0000   1.0000
     1.0000   1.0000   1.0000   1.0000   1.0000   1.0000   1.0000   1.0000
     1.0000   1.0000   1.0000   1.0000   1.0000   1.0000   1.0000   1.0000
     1.0000   1.0000   1.0000   1.0000   1.0000   1.0000   1.0000   1.0000
     1.0000   1.0000   1.0000   1.0000   1.0000   1.0000   1.0000   1.0000
     1.0000   1.0000   1.0000   1.0000   1.0000   1.0000   1.0000   1.0000
     1.0000   1.0000   1.0000   1.0000   1.0000   1.0000   1.0000   1.0000
     1.0000   1.0000   1.0000   1.0000   1.0000   1.0000   1.0000   1.0000
     1.0000   1.0000   1.0000   1.0000   1.0000   1.0000   1.0000   1.0000
     1.0000   1.0000   1.0000   1.0000   1.0000   1.0000   1.0000   1.0000
     1.0000   1.0000   1.0000   1.0000   1.0000   1.0000   1.0000   1.0000
     1.0000   1.0000   1.0000   1.0000   1.0000   1.0000   1.0000   1.0000
     1.0000   1.0000   1.0000   1.0000   1.0000   1.0000   1.0000   1.0000
     1.0000   1.0000   1.0000   1.0000   1.0000   1.0000   1.0000   1.0000
     1.0000   1.0000   1.0000   1.0000   1.0000   1.0000   1.0000   1.0000
     1.0000   1.0000   1.0000   1.0000   1.0000   1.0000   1.0000   1.0000
     1.0000   1.0000   1.0000   1.0000   1.0000   1.0000   1.0000   1.0000
     1.0000   1.0000   1.0000   1.0000   1.0000   1.0000   1.0000   1.0000
     1.0000   1.0000   1.0000   1.0000   1.0000   1.0000   1.0000   1.0000
     1.0000   1.0000   1.0000   1.0000   1.0000   1.0000   1.0000   1.0000
     1.0000   1.0000   1.0000   1.0000   1.0000   1.0000   1.0000   1.0000
     1.0000   1.0000   1.0000   1.0000   1.0000   1.0000   1.0000   1.0000
     1.0000   1.0000   1.0000   1.0000   1.0000   1.0000   1.0000   1.0000
     1.0000   1.0000   1.0000   1.0000   1.0000   1.0000   1.0000   1.0000
     1.0000   1.0000   1.0000   1.0000   1.0000   1.0000   1.0000   1.0000
     1.0000   1.0000   1.0000   1.0000   1.0000   1.0000   1.0000   1.0000
     1.0000   1.0000   1.0000   1.0000   1.0000   1.0000   1.0000   1.0000
     1.0000   1.0000   1.0000   1.0000   1.0000   1.0000   1.0000   1.0000
     1.0000   1.0000   1.0000   1.0000   1.0000   1.0000   1.0000   1.0000
     1.0000   1.0000   1.0000   1.0000   1.0000   1.0000   1.0000   1.0000
     1.0000   1.0000   1.0000   1.0000   1.0000   1.0000   1.0000   1.0000
     1.0000   1.0000   1.0000   1.0000   1.0000   1.0000   1.0000   1.0000
     1.0000   1.0000   1.0000   1.0000   1.0000   1.0000   1.0000   1.0000
     1.0000   1.0000   1.0000   1.0000   1.0000   1.0000   1.0000   1.0000
     1.0000   1.0000   1.0000   1.0000   1.0000   1.0000   1.0000   1.0000
     1.0000   1.0000   1.0000   1.0000   1.0000   1.0000   1.0000   1.0000
     1.0000   1.0000   1.0000   1.0000   1.0000   1.0000   1.0000   1.0000
     1.0000   1.0000   1.0000   1.0000   1.0000   1.0000   1.0000   1.0000
     1.0000   1.0000   1.0000   1.0000  -0.0074  -0.0074  -0.0000  -0.0000
    -0.0000  -0.0000  -0.0000  -0.0000  -0.0000  -0.0000  -0.0000  -0.0000
    -0.0000  -0.0000  -0.0000  -0.0000  -0.0000  -0.0000  -0.0000  -0.0000
    -0.0000  -0.0000  -0.0000  -0.0000  -0.0000  -0.0000  -0.0000  -0.0000
    -0.0000  -0.0000  -0.0000  -0.0000  -0.0000  -0.0000  -0.0000  -0.0000
    -0.0000  -0.0000  -0.0000  -0.0000  -0.0000  -0.0000  -0.0000  -0.0000
    -0.0000  -0.0000  -0.0000  -0.0000  -0.0000  -0.0000  -0.0000  -0.0000
    -0.0000  -0.0000  -0.0000  -0.0000  -0.0000  -0.0000  -0.0000  -0.0000
    -0.0000  -0.0000  -0.0000  -0.0000  -0.0000  -0.0000  -0.0000  -0.0000
    -0.0000  -0.0000  -0.0000  -0.0000  -0.0000  -0.0000  -0.0000  -0.0000
    -0.0000  -0.0000  -0.0000  -0.0000  -0.0000  -0.0000  -0.0000  -0.0000
    -0.0000  -0.0000  -0.0000  -0.0000  -0.0000  -0.0000  -0.0000  -0.0000
    -0.0000  -0.0000  -0.0000  -0.0000  -0.0000  -0.0000  -0.0000  -0.0000
    -0.0000  -0.0000  -0.0000  -0.0000  -0.0000  -0.0000  -0.0000  -0.0000

     the Fermi energy is     8.0057 ev

!    total energy              =  -12302.25293715 Ry
     estimated scf accuracy    <          5.8E-09 Ry
     smearing contrib. (-TS)   =       0.00241450 Ry
     internal energy E=F+TS    =  -12302.25535164 Ry

     The total energy is F=E-TS. E is the sum of the following terms:
     one-electron contribution =   -7010.79310096 Ry
     hartree contribution      =    3661.00087824 Ry
     xc contribution           =   -2373.35824136 Ry
     ewald contribution        =   -6579.10488756 Ry

     convergence has been achieved in  12 iterations

     Forces acting on atoms (cartesian axes, Ry/au):

     atom    1 type  1   force =     0.00000000    0.00000034   -0.00004584
     atom    2 type  1   force =    -0.00000016   -0.00000009    0.00004666
     atom    3 type  1   force =     0.00000000   -0.00000000    0.00000000
     atom    4 type  2   force =     0.00000000    0.00000336    0.00009368
     atom    5 type  2   force =    -0.00000393   -0.00000227   -0.00008980
     atom    6 type  1   force =     0.00000000   -0.00000019   -0.00004666
     atom    7 type  1   force =     0.00000030    0.00000017    0.00004584
     atom    8 type  1   force =     0.00000000   -0.00000000    0.00000000
     atom    9 type  2   force =     0.00000000   -0.00000454    0.00008980
     atom   10 type  2   force =     0.00000291    0.00000168   -0.00009368
     atom   11 type  1   force =     0.00000081    0.00000047   -0.00004649
     atom   12 type  1   force =     0.00000000    0.00000059    0.00004704
     atom   13 type  1   force =    -0.00000015    0.00000025   -0.00000000
     atom   14 type  2   force =     0.00000483    0.00000279    0.00009406
     atom   15 type  2   force =     0.00000000    0.00000055   -0.00009266
     atom   16 type  1   force =    -0.00000051   -0.00000029   -0.00004609
     atom   17 type  1   force =     0.00000000   -0.00000032    0.00004564
     atom   18 type  1   force =     0.00000054   -0.00000093   -0.00000000
     atom   19 type  2   force =    -0.00000448   -0.00000258    0.00008727
     atom   20 type  2   force =     0.00000000   -0.00000121   -0.00008758
     atom   21 type  1   force =     0.00000030   -0.00000017   -0.00004584
     atom   22 type  1   force =     0.00000051   -0.00000029    0.00004704
     atom   23 type  1   force =     0.00000015   -0.00000025    0.00000000
     atom   24 type  2   force =     0.00000291   -0.00000168    0.00009368
     atom   25 type  2   force =     0.00000048   -0.00000028   -0.00009266
     atom   26 type  1   force =    -0.00000016    0.00000009   -0.00004666
     atom   27 type  1   force =    -0.00000028    0.00000016    0.00004564
     atom   28 type  1   force =    -0.00000054    0.00000093   -0.00000000
     atom   29 type  2   force =    -0.00000393    0.00000227    0.00008980
     atom   30 type  2   force =    -0.00000105    0.00000061   -0.00008758
     atom   31 type  1   force =    -0.00000028   -0.00000016   -0.00004564
     atom   32 type  1   force =     0.00000000   -0.00000059    0.00004609
     atom   33 type  1   force =     0.00000029    0.00000000    0.00000000
     atom   34 type  2   force =    -0.00000105   -0.00000061    0.00008758
     atom   35 type  2   force =     0.00000000   -0.00000517   -0.00008727
     atom   36 type  1   force =     0.00000051    0.00000029   -0.00004704
     atom   37 type  1   force =    -0.00000000    0.00000094    0.00004649
     atom   38 type  1   force =    -0.00000108   -0.00000000    0.00000000
     atom   39 type  2   force =     0.00000048    0.00000028    0.00009266
     atom   40 type  2   force =     0.00000000    0.00000558   -0.00009406
     atom   41 type  1   force =    -0.00000081    0.00000047   -0.00004649
     atom   42 type  1   force =    -0.00000051    0.00000029    0.00004609
     atom   43 type  1   force =     0.00000015    0.00000025   -0.00000000
     atom   44 type  2   force =    -0.00000483    0.00000279    0.00009406
     atom   45 type  2   force =    -0.00000448    0.00000258   -0.00008727
     atom   46 type  1   force =     0.00000051   -0.00000029   -0.00004609
     atom   47 type  1   force =     0.00000081   -0.00000047    0.00004649
     atom   48 type  1   force =    -0.00000054   -0.00000093    0.00000000
     atom   49 type  2   force =     0.00000448   -0.00000258    0.00008727
     atom   50 type  2   force =     0.00000483   -0.00000279   -0.00009406
     atom   51 type  1   force =     0.00000000   -0.00000094   -0.00004649
     atom   52 type  1   force =    -0.00000051   -0.00000029    0.00004704
     atom   53 type  1   force =     0.00000000    0.00000000    0.00000126
     atom   54 type  2   force =     0.00000000   -0.00000558    0.00009406
     atom   55 type  2   force =    -0.00000048   -0.00000028   -0.00009266
     atom   56 type  1   force =     0.00000000    0.00000059   -0.00004609
     atom   57 type  1   force =     0.00000028    0.00000016    0.00004564
     atom   58 type  1   force =     0.00000000   -0.00000000   -0.00000079
     atom   59 type  2   force =     0.00000000    0.00000517    0.00008727
     atom   60 type  2   force =     0.00000105    0.00000061   -0.00008758
     atom   61 type  1   force =     0.00000028   -0.00000016   -0.00004564
     atom   62 type  1   force =     0.00000016   -0.00000009    0.00004666
     atom   63 type  1   force =    -0.00000029   -0.00000000   -0.00000000
     atom   64 type  2   force =     0.00000105   -0.00000061    0.00008758
     atom   65 type  2   force =     0.00000393   -0.00000227   -0.00008980
     atom   66 type  1   force =    -0.00000051    0.00000029   -0.00004704
     atom   67 type  1   force =    -0.00000030    0.00000017    0.00004584
     atom   68 type  1   force =     0.00000108    0.00000000    0.00000000
     atom   69 type  2   force =    -0.00000048    0.00000028    0.00009266
     atom   70 type  2   force =    -0.00000291    0.00000168   -0.00009368
     atom   71 type  1   force =     0.00000000    0.00000032   -0.00004564
     atom   72 type  1   force =     0.00000051    0.00000029    0.00004609
     atom   73 type  1   force =     0.00000000    0.00000000   -0.00000126
     atom   74 type  2   force =     0.00000000    0.00000121    0.00008758
     atom   75 type  2   force =     0.00000448    0.00000258   -0.00008727
     atom   76 type  1   force =     0.00000000   -0.00000059   -0.00004704
     atom   77 type  1   force =    -0.00000081   -0.00000047    0.00004649
     atom   78 type  1   force =     0.00000000   -0.00000000    0.00000079
     atom   79 type  2   force =     0.00000000   -0.00000055    0.00009266
     atom   80 type  2   force =    -0.00000483   -0.00000279   -0.00009406
     atom   81 type  1   force =    -0.00000030   -0.00000017   -0.00004584
     atom   82 type  1   force =     0.00000000    0.00000019    0.00004666
     atom   83 type  1   force =    -0.00000015   -0.00000025    0.00000000
     atom   84 type  2   force =    -0.00000291   -0.00000168    0.00009368
     atom   85 type  2   force =     0.00000000    0.00000454   -0.00008980
     atom   86 type  1   force =     0.00000016    0.00000009   -0.00004666
     atom   87 type  1   force =     0.00000000   -0.00000034    0.00004584
     atom   88 type  1   force =     0.00000054    0.00000093    0.00000000
     atom   89 type  2   force =     0.00000393    0.00000227    0.00008980
     atom   90 type  2   force =     0.00000000   -0.00000336   -0.00009368
     The non-local contrib.  to forces
     atom    1 type  1   force =     0.00000000    0.00000131    0.03578121
     atom    2 type  1   force =     0.00000119    0.00000069   -0.03578096
     atom    3 type  1   force =    -0.00000000    0.00000000    0.00000000
     atom    4 type  2   force =     0.00000000    0.00000267    0.17444374
     atom    5 type  2   force =    -0.00000200   -0.00000115   -0.17444124
     atom    6 type  1   force =     0.00000000    0.00000137    0.03578096
     atom    7 type  1   force =     0.00000114    0.00000066   -0.03578121
     atom    8 type  1   force =    -0.00000000   -0.00000000    0.00000000
     atom    9 type  2   force =     0.00000000   -0.00000230    0.17444124
     atom   10 type  2   force =     0.00000231    0.00000133   -0.17444374
     atom   11 type  1   force =    -0.00000142   -0.00000082    0.03578392
     atom   12 type  1   force =     0.00000000   -0.00000216   -0.03578064
     atom   13 type  1   force =    -0.00000072    0.00000125    0.00000000
     atom   14 type  2   force =     0.00000313    0.00000181    0.17444420
     atom   15 type  2   force =     0.00000000    0.00000035   -0.17444118
     atom   16 type  1   force =     0.00000311    0.00000179    0.03577925
     atom   17 type  1   force =     0.00000000    0.00000315   -0.03578220
     atom   18 type  1   force =    -0.00000038    0.00000066    0.00000000
     atom   19 type  2   force =    -0.00000271   -0.00000157    0.17443946
     atom   20 type  2   force =     0.00000000   -0.00000006   -0.17444129
     atom   21 type  1   force =     0.00000114   -0.00000066    0.03578121
     atom   22 type  1   force =    -0.00000187    0.00000108   -0.03578064
     atom   23 type  1   force =     0.00000072   -0.00000125    0.00000000
     atom   24 type  2   force =     0.00000231   -0.00000133    0.17444374
     atom   25 type  2   force =     0.00000030   -0.00000017   -0.17444118
     atom   26 type  1   force =     0.00000119   -0.00000069    0.03578096
     atom   27 type  1   force =     0.00000273   -0.00000158   -0.03578220
     atom   28 type  1   force =     0.00000038   -0.00000066    0.00000000
     atom   29 type  2   force =    -0.00000200    0.00000115    0.17444124
     atom   30 type  2   force =    -0.00000005    0.00000003   -0.17444129
     atom   31 type  1   force =     0.00000273    0.00000158    0.03578220
     atom   32 type  1   force =     0.00000000    0.00000359   -0.03577925
     atom   33 type  1   force =     0.00000145    0.00000000    0.00000000
     atom   34 type  2   force =    -0.00000005   -0.00000003    0.17444129
     atom   35 type  2   force =     0.00000000   -0.00000313   -0.17443946
     atom   36 type  1   force =    -0.00000187   -0.00000108    0.03578064
     atom   37 type  1   force =     0.00000000   -0.00000164   -0.03578392
     atom   38 type  1   force =     0.00000076    0.00000000   -0.00000000
     atom   39 type  2   force =     0.00000030    0.00000017    0.17444118
     atom   40 type  2   force =     0.00000000    0.00000361   -0.17444420
     atom   41 type  1   force =     0.00000142   -0.00000082    0.03578392
     atom   42 type  1   force =     0.00000311   -0.00000179   -0.03577925
     atom   43 type  1   force =     0.00000072    0.00000125   -0.00000000
     atom   44 type  2   force =    -0.00000313    0.00000181    0.17444420
     atom   45 type  2   force =    -0.00000271    0.00000157   -0.17443946
     atom   46 type  1   force =    -0.00000311    0.00000179    0.03577925
     atom   47 type  1   force =    -0.00000142    0.00000082   -0.03578392
     atom   48 type  1   force =     0.00000038    0.00000066    0.00000000
     atom   49 type  2   force =     0.00000271   -0.00000157    0.17443946
     atom   50 type  2   force =     0.00000313   -0.00000181   -0.17444420
     atom   51 type  1   force =     0.00000000    0.00000164    0.03578392
     atom   52 type  1   force =     0.00000187    0.00000108   -0.03578064
     atom   53 type  1   force =     0.00000000    0.00000000   -0.00000483
     atom   54 type  2   force =     0.00000000   -0.00000361    0.17444420
     atom   55 type  2   force =    -0.00000030   -0.00000017   -0.17444118
     atom   56 type  1   force =     0.00000000   -0.00000359    0.03577925
     atom   57 type  1   force =    -0.00000273   -0.00000158   -0.03578220
     atom   58 type  1   force =    -0.00000000   -0.00000000    0.00000404
     atom   59 type  2   force =     0.00000000    0.00000313    0.17443946
     atom   60 type  2   force =     0.00000005    0.00000003   -0.17444129
     atom   61 type  1   force =    -0.00000273    0.00000158    0.03578220
     atom   62 type  1   force =    -0.00000119    0.00000069   -0.03578096
     atom   63 type  1   force =    -0.00000145   -0.00000000    0.00000000
     atom   64 type  2   force =     0.00000005   -0.00000003    0.17444129
     atom   65 type  2   force =     0.00000200   -0.00000115   -0.17444124
     atom   66 type  1   force =     0.00000187   -0.00000108    0.03578064
     atom   67 type  1   force =    -0.00000114    0.00000066   -0.03578121
     atom   68 type  1   force =    -0.00000076   -0.00000000    0.00000000
     atom   69 type  2   force =    -0.00000030    0.00000017    0.17444118
     atom   70 type  2   force =    -0.00000231    0.00000133   -0.17444374
     atom   71 type  1   force =     0.00000000   -0.00000315    0.03578220
     atom   72 type  1   force =    -0.00000311   -0.00000179   -0.03577925
     atom   73 type  1   force =     0.00000000    0.00000000    0.00000483
     atom   74 type  2   force =     0.00000000    0.00000006    0.17444129
     atom   75 type  2   force =     0.00000271    0.00000157   -0.17443946
     atom   76 type  1   force =     0.00000000    0.00000216    0.03578064
     atom   77 type  1   force =     0.00000142    0.00000082   -0.03578392
     atom   78 type  1   force =     0.00000000    0.00000000   -0.00000404
     atom   79 type  2   force =     0.00000000   -0.00000035    0.17444118
     atom   80 type  2   force =    -0.00000313   -0.00000181   -0.17444420
     atom   81 type  1   force =    -0.00000114   -0.00000066    0.03578121
     atom   82 type  1   force =     0.00000000   -0.00000137   -0.03578096
     atom   83 type  1   force =    -0.00000072   -0.00000125    0.00000000
     atom   84 type  2   force =    -0.00000231   -0.00000133    0.17444374
     atom   85 type  2   force =     0.00000000    0.00000230   -0.17444124
     atom   86 type  1   force =    -0.00000119   -0.00000069    0.03578096
     atom   87 type  1   force =     0.00000000   -0.00000131   -0.03578121
     atom   88 type  1   force =    -0.00000038   -0.00000066    0.00000000
     atom   89 type  2   force =     0.00000200    0.00000115    0.17444124
     atom   90 type  2   force =     0.00000000   -0.00000267   -0.17444374
     The ionic contribution  to forces
     atom    1 type  1   force =     0.00000037    0.00000580   -0.62087864
     atom    2 type  1   force =     0.00000383    0.00000264    0.62084250
     atom    3 type  1   force =     0.00000000    0.00000000    0.00000000
     atom    4 type  2   force =     0.00000039   -0.00005196   -1.31852613
     atom    5 type  2   force =     0.00004594    0.00002698    1.31844341
     atom    6 type  1   force =     0.00000037    0.00000464   -0.62084250
     atom    7 type  1   force =     0.00000483    0.00000322    0.62087864
     atom    8 type  1   force =     0.00000000    0.00000000    0.00000000
     atom    9 type  2   force =     0.00000039    0.00005328   -1.31844341
     atom   10 type  2   force =    -0.00004520   -0.00002564    1.31852613
     atom   11 type  1   force =    -0.00002712   -0.00001608   -0.62086588
     atom   12 type  1   force =    -0.00000037   -0.00003132    0.62085777
     atom   13 type  1   force =    -0.00000706    0.00001223    0.00000000
     atom   14 type  2   force =    -0.00007320   -0.00004272   -1.31853316
     atom   15 type  2   force =    -0.00000040   -0.00001960    1.31850295
     atom   16 type  1   force =     0.00002324    0.00001299   -0.62086886
     atom   17 type  1   force =    -0.00000037    0.00003311    0.62088340
     atom   18 type  1   force =     0.00000755   -0.00001307    0.00000000
     atom   19 type  2   force =     0.00005983    0.00003409   -1.31840942
     atom   20 type  2   force =    -0.00000040    0.00002037    1.31843669
     atom   21 type  1   force =     0.00000558   -0.00000322   -0.62087864
     atom   22 type  1   force =    -0.00002768    0.00001598    0.62085777
     atom   23 type  1   force =     0.00000706   -0.00001223    0.00000000
     atom   24 type  2   force =    -0.00004441    0.00002564   -1.31852613
     atom   25 type  2   force =    -0.00001757    0.00001014    1.31850295
     atom   26 type  1   force =     0.00000457   -0.00000264   -0.62084250
     atom   27 type  1   force =     0.00002812   -0.00001624    0.62088340
     atom   28 type  1   force =    -0.00000754    0.00001307    0.00000000
     atom   29 type  2   force =     0.00004673   -0.00002698   -1.31844341
     atom   30 type  2   force =     0.00001705   -0.00000985    1.31843669
     atom   31 type  1   force =     0.00002886    0.00001624   -0.62088340
     atom   32 type  1   force =    -0.00000037    0.00002662    0.62086886
     atom   33 type  1   force =     0.00001412    0.00000000    0.00000000
     atom   34 type  2   force =     0.00001784    0.00000984   -1.31843669
     atom   35 type  2   force =    -0.00000040    0.00006885    1.31840942
     atom   36 type  1   force =    -0.00002694   -0.00001598   -0.62085777
     atom   37 type  1   force =    -0.00000037   -0.00003153    0.62086588
     atom   38 type  1   force =    -0.00001509    0.00000000    0.00000000
     atom   39 type  2   force =    -0.00001678   -0.00001014   -1.31850295
     atom   40 type  2   force =    -0.00000040   -0.00008475    1.31853316
     atom   41 type  1   force =     0.00002786   -0.00001608   -0.62086588
     atom   42 type  1   force =     0.00002250   -0.00001299    0.62086886
     atom   43 type  1   force =     0.00000706    0.00001223    0.00000000
     atom   44 type  2   force =     0.00007398   -0.00004272   -1.31853316
     atom   45 type  2   force =     0.00005904   -0.00003409    1.31840942
     atom   46 type  1   force =    -0.00002250    0.00001299   -0.62086886
     atom   47 type  1   force =    -0.00002786    0.00001608    0.62086588
     atom   48 type  1   force =    -0.00000754   -0.00001307    0.00000000
     atom   49 type  2   force =    -0.00005904    0.00003409   -1.31840942
     atom   50 type  2   force =    -0.00007399    0.00004271    1.31853316
     atom   51 type  1   force =     0.00000037    0.00003153   -0.62086588
     atom   52 type  1   force =     0.00002694    0.00001598    0.62085777
     atom   53 type  1   force =     0.00000000    0.00000000   -0.00006796
     atom   54 type  2   force =     0.00000039    0.00008475   -1.31853316
     atom   55 type  2   force =     0.00001678    0.00001014    1.31850295
     atom   56 type  1   force =     0.00000037   -0.00002662   -0.62086886
     atom   57 type  1   force =    -0.00002886   -0.00001624    0.62088340
     atom   58 type  1   force =     0.00000000    0.00000000    0.00006099
     atom   59 type  2   force =     0.00000039   -0.00006886   -1.31840942
     atom   60 type  2   force =    -0.00001784   -0.00000985    1.31843669
     atom   61 type  1   force =    -0.00002812    0.00001624   -0.62088340
     atom   62 type  1   force =    -0.00000457    0.00000264    0.62084250
     atom   63 type  1   force =    -0.00001411    0.00000000    0.00000000
     atom   64 type  2   force =    -0.00001705    0.00000984   -1.31843669
     atom   65 type  2   force =    -0.00004673    0.00002698    1.31844341
     atom   66 type  1   force =     0.00002768   -0.00001598   -0.62085777
     atom   67 type  1   force =    -0.00000558    0.00000322    0.62087864
     atom   68 type  1   force =     0.00001510    0.00000000    0.00000000
     atom   69 type  2   force =     0.00001756   -0.00001014   -1.31850295
     atom   70 type  2   force =     0.00004441   -0.00002564    1.31852613
     atom   71 type  1   force =     0.00000037   -0.00003311   -0.62088340
     atom   72 type  1   force =    -0.00002324   -0.00001299    0.62086886
     atom   73 type  1   force =     0.00000000    0.00000000    0.00006797
     atom   74 type  2   force =     0.00000039   -0.00002037   -1.31843669
     atom   75 type  2   force =    -0.00005983   -0.00003409    1.31840942
     atom   76 type  1   force =     0.00000037    0.00003132   -0.62085777
     atom   77 type  1   force =     0.00002712    0.00001608    0.62086588
     atom   78 type  1   force =     0.00000000    0.00000000   -0.00006099
     atom   79 type  2   force =     0.00000039    0.00001960   -1.31850295
     atom   80 type  2   force =     0.00007320    0.00004271    1.31853316
     atom   81 type  1   force =    -0.00000484   -0.00000322   -0.62087864
     atom   82 type  1   force =    -0.00000037   -0.00000464    0.62084250
     atom   83 type  1   force =    -0.00000706   -0.00001223    0.00000000
     atom   84 type  2   force =     0.00004519    0.00002564   -1.31852613
     atom   85 type  2   force =    -0.00000040   -0.00005328    1.31844341
     atom   86 type  1   force =    -0.00000383   -0.00000264   -0.62084250
     atom   87 type  1   force =    -0.00000037   -0.00000580    0.62087864
     atom   88 type  1   force =     0.00000755    0.00001307    0.00000000
     atom   89 type  2   force =    -0.00004594   -0.00002698   -1.31844341
     atom   90 type  2   force =    -0.00000040    0.00005196    1.31852613
     The local contribution  to forces
     atom    1 type  1   force =     0.00000773   -0.00000482    0.58501886
     atom    2 type  1   force =    -0.00000203    0.00000794   -0.58498918
     atom    3 type  1   force =     0.00000000    0.00000000    0.00000000
     atom    4 type  2   force =     0.00000271    0.00003912    1.14956817
     atom    5 type  2   force =    -0.00000540    0.00000009   -1.14951571
     atom    6 type  1   force =     0.00000773    0.00000231    0.58498908
     atom    7 type  1   force =    -0.00000821    0.00000439   -0.58501896
     atom    8 type  1   force =     0.00000000    0.00000000    0.00000000
     atom    9 type  2   force =     0.00000271   -0.00000460    1.14951567
     atom   10 type  2   force =     0.00003246    0.00002194   -1.14956820
     atom   11 type  1   force =     0.00002164    0.00000343    0.58502272
     atom   12 type  1   force =    -0.00000800    0.00002230   -0.58500929
     atom   13 type  1   force =     0.00000486   -0.00000843    0.00000000
     atom   14 type  2   force =     0.00004440    0.00002246    1.14956349
     atom   15 type  2   force =    -0.00000280    0.00002616   -1.14951975
     atom   16 type  1   force =     0.00000615   -0.00000550    0.58500542
     atom   17 type  1   force =    -0.00000800   -0.00000668   -0.58502687
     atom   18 type  1   force =    -0.00001117    0.00001934    0.00000000
     atom   19 type  2   force =    -0.00001599   -0.00001240    1.14948270
     atom   20 type  2   force =    -0.00000280    0.00000272   -1.14952517
     atom   21 type  1   force =     0.00000752   -0.00000446    0.58501886
     atom   22 type  1   force =     0.00000739   -0.00000438   -0.58500929
     atom   23 type  1   force =    -0.00000486    0.00000843    0.00000000
     atom   24 type  2   force =     0.00003798   -0.00002197    1.14956817
     atom   25 type  2   force =     0.00001847   -0.00001071   -1.14951975
     atom   26 type  1   force =     0.00001370   -0.00000801    0.58498908
     atom   27 type  1   force =    -0.00001771    0.00001012   -0.58502687
     atom   28 type  1   force =     0.00001117   -0.00001934    0.00000000
     atom   29 type  2   force =     0.00000011   -0.00000011    1.14951567
     atom   30 type  2   force =    -0.00000182    0.00000101   -1.14952517
     atom   31 type  1   force =    -0.00000199   -0.00001019    0.58502677
     atom   32 type  1   force =    -0.00000800    0.00000270   -0.58500552
     atom   33 type  1   force =    -0.00000972    0.00000000    0.00000000
     atom   34 type  2   force =     0.00000370   -0.00000104    1.14952513
     atom   35 type  2   force =    -0.00000280   -0.00002000   -1.14948273
     atom   36 type  1   force =     0.00002312    0.00000431    0.58500919
     atom   37 type  1   force =    -0.00000800    0.00002056   -0.58502282
     atom   38 type  1   force =     0.00002231    0.00000000    0.00000000
     atom   39 type  2   force =     0.00002398    0.00001068    1.14951971
     atom   40 type  2   force =    -0.00000280    0.00004973   -1.14956352
     atom   41 type  1   force =    -0.00000619    0.00000343    0.58502272
     atom   42 type  1   force =    -0.00000957    0.00000543   -0.58500552
     atom   43 type  1   force =    -0.00000486   -0.00000843    0.00000000
     atom   44 type  2   force =    -0.00003898    0.00002246    1.14956349
     atom   45 type  2   force =    -0.00002150    0.00001238   -1.14948273
     atom   46 type  1   force =     0.00000930   -0.00000550    0.58500542
     atom   47 type  1   force =     0.00000592   -0.00000350   -0.58502282
     atom   48 type  1   force =     0.00001117    0.00001934    0.00000000
     atom   49 type  2   force =     0.00002140   -0.00001240    1.14948270
     atom   50 type  2   force =     0.00003889   -0.00002248   -1.14956352
     atom   51 type  1   force =     0.00000773   -0.00002063    0.58502272
     atom   52 type  1   force =    -0.00002339   -0.00000438   -0.58500929
     atom   53 type  1   force =     0.00000000   -0.00000000    0.00003471
     atom   54 type  2   force =     0.00000271   -0.00004975    1.14956349
     atom   55 type  2   force =    -0.00002408   -0.00001071   -1.14951975
     atom   56 type  1   force =     0.00000773   -0.00000277    0.58500542
     atom   57 type  1   force =     0.00000171    0.00001012   -0.58502687
     atom   58 type  1   force =     0.00000000    0.00000000   -0.00003157
     atom   59 type  2   force =     0.00000271    0.00001998    1.14948270
     atom   60 type  2   force =    -0.00000379    0.00000101   -1.14952517
     atom   61 type  1   force =     0.00001744   -0.00001019    0.58502677
     atom   62 type  1   force =    -0.00001397    0.00000794   -0.58498918
     atom   63 type  1   force =     0.00000972    0.00000000    0.00000000
     atom   64 type  2   force =     0.00000172   -0.00000104    1.14952513
     atom   65 type  2   force =    -0.00000021    0.00000009   -1.14951571
     atom   66 type  1   force =    -0.00000767    0.00000431    0.58500919
     atom   67 type  1   force =    -0.00000779    0.00000439   -0.58501896
     atom   68 type  1   force =    -0.00002231    0.00000000    0.00000000
     atom   69 type  2   force =    -0.00001857    0.00001068    1.14951971
     atom   70 type  2   force =    -0.00003807    0.00002194   -1.14956820
     atom   71 type  1   force =     0.00000773    0.00000661    0.58502677
     atom   72 type  1   force =    -0.00000642    0.00000543   -0.58500552
     atom   73 type  1   force =     0.00000000   -0.00000000   -0.00003471
     atom   74 type  2   force =     0.00000271   -0.00000275    1.14952513
     atom   75 type  2   force =     0.00001589    0.00001238   -1.14948273
     atom   76 type  1   force =     0.00000773   -0.00002237    0.58500919
     atom   77 type  1   force =    -0.00002191   -0.00000350   -0.58502282
     atom   78 type  1   force =     0.00000000    0.00000000    0.00003157
     atom   79 type  2   force =     0.00000271   -0.00002618    1.14951971
     atom   80 type  2   force =    -0.00004450   -0.00002248   -1.14956352
     atom   81 type  1   force =     0.00000793   -0.00000446    0.58501886
     atom   82 type  1   force =    -0.00000800   -0.00000238   -0.58498918
     atom   83 type  1   force =     0.00000486    0.00000843    0.00000000
     atom   84 type  2   force =    -0.00003256   -0.00002197    1.14956817
     atom   85 type  2   force =    -0.00000280    0.00000458   -1.14951571
     atom   86 type  1   force =     0.00000176   -0.00000801    0.58498908
     atom   87 type  1   force =    -0.00000800    0.00000475   -0.58501896
     atom   88 type  1   force =    -0.00001117   -0.00001934    0.00000000
     atom   89 type  2   force =     0.00000530   -0.00000011    1.14951567
     atom   90 type  2   force =    -0.00000280   -0.00003914   -1.14956820
     The core correction contribution to forces
     atom    1 type  1   force =     0.00000000    0.00000000    0.00000000
     atom    2 type  1   force =     0.00000000    0.00000000    0.00000000
     atom    3 type  1   force =     0.00000000    0.00000000    0.00000000
     atom    4 type  2   force =     0.00000014   -0.00000020   -0.00539685
     atom    5 type  2   force =     0.00000051    0.00000046    0.00539645
     atom    6 type  1   force =     0.00000000    0.00000000    0.00000000
     atom    7 type  1   force =     0.00000000    0.00000000    0.00000000
     atom    8 type  1   force =     0.00000000    0.00000000    0.00000000
     atom    9 type  2   force =     0.00000014    0.00000067   -0.00539646
     atom   10 type  2   force =    -0.00000025    0.00000002    0.00539685
     atom   11 type  1   force =     0.00000000    0.00000000    0.00000000
     atom   12 type  1   force =     0.00000000    0.00000000    0.00000000
     atom   13 type  1   force =     0.00000000    0.00000000    0.00000000
     atom   14 type  2   force =    -0.00000025   -0.00000031   -0.00539726
     atom   15 type  2   force =    -0.00000015    0.00000028    0.00539718
     atom   16 type  1   force =     0.00000000    0.00000000    0.00000000
     atom   17 type  1   force =     0.00000000    0.00000000    0.00000000
     atom   18 type  1   force =     0.00000000    0.00000000    0.00000000
     atom   19 type  2   force =     0.00000072    0.00000025   -0.00539648
     atom   20 type  2   force =    -0.00000015    0.00000029    0.00539648
     atom   21 type  1   force =     0.00000000    0.00000000    0.00000000
     atom   22 type  1   force =     0.00000000    0.00000000    0.00000000
     atom   23 type  1   force =     0.00000000    0.00000000    0.00000000
     atom   24 type  2   force =     0.00000004   -0.00000003   -0.00539685
     atom   25 type  2   force =     0.00000002   -0.00000002    0.00539718
     atom   26 type  1   force =     0.00000000    0.00000000    0.00000000
     atom   27 type  1   force =     0.00000000    0.00000000    0.00000000
     atom   28 type  1   force =     0.00000000    0.00000000    0.00000000
     atom   29 type  2   force =     0.00000080   -0.00000046   -0.00539646
     atom   30 type  2   force =     0.00000003   -0.00000002    0.00539648
     atom   31 type  1   force =     0.00000000    0.00000000    0.00000000
     atom   32 type  1   force =     0.00000000    0.00000000    0.00000000
     atom   33 type  1   force =     0.00000000    0.00000000    0.00000000
     atom   34 type  2   force =     0.00000032    0.00000002   -0.00539648
     atom   35 type  2   force =    -0.00000015    0.00000076    0.00539648
     atom   36 type  1   force =     0.00000000    0.00000000    0.00000000
     atom   37 type  1   force =     0.00000000    0.00000000    0.00000000
     atom   38 type  1   force =     0.00000000    0.00000000    0.00000000
     atom   39 type  2   force =     0.00000031    0.00000001   -0.00539718
     atom   40 type  2   force =    -0.00000015   -0.00000037    0.00539726
     atom   41 type  1   force =     0.00000000    0.00000000    0.00000000
     atom   42 type  1   force =     0.00000000    0.00000000    0.00000000
     atom   43 type  1   force =     0.00000000    0.00000000    0.00000000
     atom   44 type  2   force =     0.00000054   -0.00000031   -0.00539726
     atom   45 type  2   force =     0.00000044   -0.00000025    0.00539648
     atom   46 type  1   force =     0.00000000    0.00000000    0.00000000
     atom   47 type  1   force =     0.00000000    0.00000000    0.00000000
     atom   48 type  1   force =     0.00000000    0.00000000    0.00000000
     atom   49 type  2   force =    -0.00000044    0.00000025   -0.00539648
     atom   50 type  2   force =    -0.00000054    0.00000031    0.00539726
     atom   51 type  1   force =     0.00000000    0.00000000    0.00000000
     atom   52 type  1   force =     0.00000000    0.00000000    0.00000000
     atom   53 type  1   force =     0.00000000    0.00000000    0.00000000
     atom   54 type  2   force =     0.00000014    0.00000037   -0.00539726
     atom   55 type  2   force =    -0.00000032   -0.00000002    0.00539718
     atom   56 type  1   force =     0.00000000    0.00000000    0.00000000
     atom   57 type  1   force =     0.00000000    0.00000000    0.00000000
     atom   58 type  1   force =     0.00000000    0.00000000    0.00000000
     atom   59 type  2   force =     0.00000014   -0.00000076   -0.00539648
     atom   60 type  2   force =    -0.00000032   -0.00000002    0.00539648
     atom   61 type  1   force =     0.00000000    0.00000000    0.00000000
     atom   62 type  1   force =     0.00000000    0.00000000    0.00000000
     atom   63 type  1   force =     0.00000000    0.00000000    0.00000000
     atom   64 type  2   force =    -0.00000004    0.00000002   -0.00539648
     atom   65 type  2   force =    -0.00000080    0.00000046    0.00539645
     atom   66 type  1   force =     0.00000000    0.00000000    0.00000000
     atom   67 type  1   force =     0.00000000    0.00000000    0.00000000
     atom   68 type  1   force =     0.00000000    0.00000000    0.00000000
     atom   69 type  2   force =    -0.00000003    0.00000001   -0.00539718
     atom   70 type  2   force =    -0.00000005    0.00000002    0.00539685
     atom   71 type  1   force =     0.00000000    0.00000000    0.00000000
     atom   72 type  1   force =     0.00000000    0.00000000    0.00000000
     atom   73 type  1   force =     0.00000000    0.00000000    0.00000000
     atom   74 type  2   force =     0.00000014   -0.00000029   -0.00539648
     atom   75 type  2   force =    -0.00000073   -0.00000025    0.00539648
     atom   76 type  1   force =     0.00000000    0.00000000    0.00000000
     atom   77 type  1   force =     0.00000000    0.00000000    0.00000000
     atom   78 type  1   force =     0.00000000    0.00000000    0.00000000
     atom   79 type  2   force =     0.00000014   -0.00000028   -0.00539718
     atom   80 type  2   force =     0.00000025    0.00000031    0.00539726
     atom   81 type  1   force =     0.00000000    0.00000000    0.00000000
     atom   82 type  1   force =     0.00000000    0.00000000    0.00000000
     atom   83 type  1   force =     0.00000000    0.00000000    0.00000000
     atom   84 type  2   force =     0.00000024   -0.00000003   -0.00539685
     atom   85 type  2   force =    -0.00000015   -0.00000067    0.00539645
     atom   86 type  1   force =     0.00000000    0.00000000    0.00000000
     atom   87 type  1   force =     0.00000000    0.00000000    0.00000000
     atom   88 type  1   force =     0.00000000    0.00000000    0.00000000
     atom   89 type  2   force =    -0.00000051   -0.00000046   -0.00539646
     atom   90 type  2   force =    -0.00000015    0.00000020    0.00539685
     The Hubbard contrib.    to forces
     atom    1 type  1   force =     0.00000000    0.00000000    0.00000000
     atom    2 type  1   force =     0.00000000    0.00000000    0.00000000
     atom    3 type  1   force =     0.00000000    0.00000000    0.00000000
     atom    4 type  2   force =     0.00000000    0.00000000    0.00000000
     atom    5 type  2   force =     0.00000000    0.00000000    0.00000000
     atom    6 type  1   force =     0.00000000    0.00000000    0.00000000
     atom    7 type  1   force =     0.00000000    0.00000000    0.00000000
     atom    8 type  1   force =     0.00000000    0.00000000    0.00000000
     atom    9 type  2   force =     0.00000000    0.00000000    0.00000000
     atom   10 type  2   force =     0.00000000    0.00000000    0.00000000
     atom   11 type  1   force =     0.00000000    0.00000000    0.00000000
     atom   12 type  1   force =     0.00000000    0.00000000    0.00000000
     atom   13 type  1   force =     0.00000000    0.00000000    0.00000000
     atom   14 type  2   force =     0.00000000    0.00000000    0.00000000
     atom   15 type  2   force =     0.00000000    0.00000000    0.00000000
     atom   16 type  1   force =     0.00000000    0.00000000    0.00000000
     atom   17 type  1   force =     0.00000000    0.00000000    0.00000000
     atom   18 type  1   force =     0.00000000    0.00000000    0.00000000
     atom   19 type  2   force =     0.00000000    0.00000000    0.00000000
     atom   20 type  2   force =     0.00000000    0.00000000    0.00000000
     atom   21 type  1   force =     0.00000000    0.00000000    0.00000000
     atom   22 type  1   force =     0.00000000    0.00000000    0.00000000
     atom   23 type  1   force =     0.00000000    0.00000000    0.00000000
     atom   24 type  2   force =     0.00000000    0.00000000    0.00000000
     atom   25 type  2   force =     0.00000000    0.00000000    0.00000000
     atom   26 type  1   force =     0.00000000    0.00000000    0.00000000
     atom   27 type  1   force =     0.00000000    0.00000000    0.00000000
     atom   28 type  1   force =     0.00000000    0.00000000    0.00000000
     atom   29 type  2   force =     0.00000000    0.00000000    0.00000000
     atom   30 type  2   force =     0.00000000    0.00000000    0.00000000
     atom   31 type  1   force =     0.00000000    0.00000000    0.00000000
     atom   32 type  1   force =     0.00000000    0.00000000    0.00000000
     atom   33 type  1   force =     0.00000000    0.00000000    0.00000000
     atom   34 type  2   force =     0.00000000    0.00000000    0.00000000
     atom   35 type  2   force =     0.00000000    0.00000000    0.00000000
     atom   36 type  1   force =     0.00000000    0.00000000    0.00000000
     atom   37 type  1   force =     0.00000000    0.00000000    0.00000000
     atom   38 type  1   force =     0.00000000    0.00000000    0.00000000
     atom   39 type  2   force =     0.00000000    0.00000000    0.00000000
     atom   40 type  2   force =     0.00000000    0.00000000    0.00000000
     atom   41 type  1   force =     0.00000000    0.00000000    0.00000000
     atom   42 type  1   force =     0.00000000    0.00000000    0.00000000
     atom   43 type  1   force =     0.00000000    0.00000000    0.00000000
     atom   44 type  2   force =     0.00000000    0.00000000    0.00000000
     atom   45 type  2   force =     0.00000000    0.00000000    0.00000000
     atom   46 type  1   force =     0.00000000    0.00000000    0.00000000
     atom   47 type  1   force =     0.00000000    0.00000000    0.00000000
     atom   48 type  1   force =     0.00000000    0.00000000    0.00000000
     atom   49 type  2   force =     0.00000000    0.00000000    0.00000000
     atom   50 type  2   force =     0.00000000    0.00000000    0.00000000
     atom   51 type  1   force =     0.00000000    0.00000000    0.00000000
     atom   52 type  1   force =     0.00000000    0.00000000    0.00000000
     atom   53 type  1   force =     0.00000000    0.00000000    0.00000000
     atom   54 type  2   force =     0.00000000    0.00000000    0.00000000
     atom   55 type  2   force =     0.00000000    0.00000000    0.00000000
     atom   56 type  1   force =     0.00000000    0.00000000    0.00000000
     atom   57 type  1   force =     0.00000000    0.00000000    0.00000000
     atom   58 type  1   force =     0.00000000    0.00000000    0.00000000
     atom   59 type  2   force =     0.00000000    0.00000000    0.00000000
     atom   60 type  2   force =     0.00000000    0.00000000    0.00000000
     atom   61 type  1   force =     0.00000000    0.00000000    0.00000000
     atom   62 type  1   force =     0.00000000    0.00000000    0.00000000
     atom   63 type  1   force =     0.00000000    0.00000000    0.00000000
     atom   64 type  2   force =     0.00000000    0.00000000    0.00000000
     atom   65 type  2   force =     0.00000000    0.00000000    0.00000000
     atom   66 type  1   force =     0.00000000    0.00000000    0.00000000
     atom   67 type  1   force =     0.00000000    0.00000000    0.00000000
     atom   68 type  1   force =     0.00000000    0.00000000    0.00000000
     atom   69 type  2   force =     0.00000000    0.00000000    0.00000000
     atom   70 type  2   force =     0.00000000    0.00000000    0.00000000
     atom   71 type  1   force =     0.00000000    0.00000000    0.00000000
     atom   72 type  1   force =     0.00000000    0.00000000    0.00000000
     atom   73 type  1   force =     0.00000000    0.00000000    0.00000000
     atom   74 type  2   force =     0.00000000    0.00000000    0.00000000
     atom   75 type  2   force =     0.00000000    0.00000000    0.00000000
     atom   76 type  1   force =     0.00000000    0.00000000    0.00000000
     atom   77 type  1   force =     0.00000000    0.00000000    0.00000000
     atom   78 type  1   force =     0.00000000    0.00000000    0.00000000
     atom   79 type  2   force =     0.00000000    0.00000000    0.00000000
     atom   80 type  2   force =     0.00000000    0.00000000    0.00000000
     atom   81 type  1   force =     0.00000000    0.00000000    0.00000000
     atom   82 type  1   force =     0.00000000    0.00000000    0.00000000
     atom   83 type  1   force =     0.00000000    0.00000000    0.00000000
     atom   84 type  2   force =     0.00000000    0.00000000    0.00000000
     atom   85 type  2   force =     0.00000000    0.00000000    0.00000000
     atom   86 type  1   force =     0.00000000    0.00000000    0.00000000
     atom   87 type  1   force =     0.00000000    0.00000000    0.00000000
     atom   88 type  1   force =     0.00000000    0.00000000    0.00000000
     atom   89 type  2   force =     0.00000000    0.00000000    0.00000000
     atom   90 type  2   force =     0.00000000    0.00000000    0.00000000
     The SCF correction term to forces
     atom    1 type  1   force =    -0.00000000   -0.00000674    0.00003268
     atom    2 type  1   force =    -0.00001152   -0.00000665   -0.00002575
     atom    3 type  1   force =    -0.00000000   -0.00000000   -0.00000000
     atom    4 type  2   force =    -0.00000000    0.00001182    0.00000474
     atom    5 type  2   force =    -0.00004633   -0.00002675    0.00002728
     atom    6 type  1   force =    -0.00000000   -0.00001330    0.00002575
     atom    7 type  1   force =    -0.00000584   -0.00000337   -0.00003268
     atom    8 type  1   force =    -0.00000000   -0.00000000   -0.00000000
     atom    9 type  2   force =    -0.00000000   -0.00005350   -0.00002728
     atom   10 type  2   force =     0.00001024    0.00000591   -0.00000474
     atom   11 type  1   force =     0.00001582    0.00000913    0.00001270
     atom   12 type  1   force =     0.00000000    0.00001650   -0.00002085
     atom   13 type  1   force =     0.00000278   -0.00000481   -0.00000000
     atom   14 type  2   force =     0.00003399    0.00001963    0.00001677
     atom   15 type  2   force =     0.00000000   -0.00000473   -0.00003188
     atom   16 type  1   force =    -0.00002491   -0.00001438    0.00003806
     atom   17 type  1   force =     0.00000000   -0.00002517   -0.00002874
     atom   18 type  1   force =     0.00000453   -0.00000785   -0.00000000
     atom   19 type  2   force =    -0.00004308   -0.00002487   -0.00002900
     atom   20 type  2   force =     0.00000000   -0.00002264    0.00004569
     atom   21 type  1   force =    -0.00000584    0.00000337    0.00003268
     atom   22 type  1   force =     0.00001429   -0.00000825   -0.00002085
     atom   23 type  1   force =    -0.00000278    0.00000481   -0.00000000
     atom   24 type  2   force =     0.00001024   -0.00000591    0.00000474
     atom   25 type  2   force =    -0.00000410    0.00000237   -0.00003188
     atom   26 type  1   force =    -0.00001152    0.00000665    0.00002575
     atom   27 type  1   force =    -0.00002179    0.00001258   -0.00002874
     atom   28 type  1   force =    -0.00000453    0.00000785   -0.00000000
     atom   29 type  2   force =    -0.00004633    0.00002675   -0.00002728
     atom   30 type  2   force =    -0.00001961    0.00001132    0.00004569
     atom   31 type  1   force =    -0.00002179   -0.00001258    0.00002874
     atom   32 type  1   force =     0.00000000   -0.00002877   -0.00003806
     atom   33 type  1   force =    -0.00000555   -0.00000000   -0.00000000
     atom   34 type  2   force =    -0.00001961   -0.00001132   -0.00004569
     atom   35 type  2   force =     0.00000000   -0.00004975    0.00002900
     atom   36 type  1   force =     0.00001429    0.00000825    0.00002085
     atom   37 type  1   force =     0.00000000    0.00001827   -0.00001270
     atom   38 type  1   force =    -0.00000906   -0.00000000   -0.00000000
     atom   39 type  2   force =    -0.00000410   -0.00000237    0.00003188
     atom   40 type  2   force =     0.00000000    0.00003925   -0.00001677
     atom   41 type  1   force =    -0.00001582    0.00000913    0.00001270
     atom   42 type  1   force =    -0.00002491    0.00001438   -0.00003806
     atom   43 type  1   force =    -0.00000278   -0.00000481   -0.00000000
     atom   44 type  2   force =    -0.00003399    0.00001963    0.00001677
     atom   45 type  2   force =    -0.00004308    0.00002487    0.00002900
     atom   46 type  1   force =     0.00002491   -0.00001438    0.00003806
     atom   47 type  1   force =     0.00001582   -0.00000913   -0.00001270
     atom   48 type  1   force =    -0.00000453   -0.00000785   -0.00000000
     atom   49 type  2   force =     0.00004308   -0.00002487   -0.00002900
     atom   50 type  2   force =     0.00003399   -0.00001963   -0.00001677
     atom   51 type  1   force =    -0.00000000   -0.00001827    0.00001270
     atom   52 type  1   force =    -0.00001429   -0.00000825   -0.00002085
     atom   53 type  1   force =    -0.00000000   -0.00000000    0.00003934
     atom   54 type  2   force =    -0.00000000   -0.00003925    0.00001677
     atom   55 type  2   force =     0.00000410    0.00000237   -0.00003188
     atom   56 type  1   force =    -0.00000000    0.00002877    0.00003806
     atom   57 type  1   force =     0.00002179    0.00001258   -0.00002874
     atom   58 type  1   force =    -0.00000000   -0.00000000   -0.00003425
     atom   59 type  2   force =    -0.00000000    0.00004975   -0.00002900
     atom   60 type  2   force =     0.00001961    0.00001132    0.00004569
     atom   61 type  1   force =     0.00002179   -0.00001258    0.00002874
     atom   62 type  1   force =     0.00001152   -0.00000665   -0.00002575
     atom   63 type  1   force =     0.00000555   -0.00000000   -0.00000000
     atom   64 type  2   force =     0.00001961   -0.00001132   -0.00004569
     atom   65 type  2   force =     0.00004633   -0.00002675    0.00002728
     atom   66 type  1   force =    -0.00001429    0.00000825    0.00002085
     atom   67 type  1   force =     0.00000584   -0.00000337   -0.00003268
     atom   68 type  1   force =     0.00000906   -0.00000000   -0.00000000
     atom   69 type  2   force =     0.00000410   -0.00000237    0.00003188
     atom   70 type  2   force =    -0.00001024    0.00000591   -0.00000474
     atom   71 type  1   force =    -0.00000000    0.00002517    0.00002874
     atom   72 type  1   force =     0.00002491    0.00001438   -0.00003806
     atom   73 type  1   force =    -0.00000000   -0.00000000   -0.00003934
     atom   74 type  2   force =    -0.00000000    0.00002264   -0.00004569
     atom   75 type  2   force =     0.00004308    0.00002487    0.00002900
     atom   76 type  1   force =    -0.00000000   -0.00001650    0.00002085
     atom   77 type  1   force =    -0.00001582   -0.00000913   -0.00001270
     atom   78 type  1   force =    -0.00000000   -0.00000000    0.00003425
     atom   79 type  2   force =    -0.00000000    0.00000473    0.00003188
     atom   80 type  2   force =    -0.00003399   -0.00001963   -0.00001677
     atom   81 type  1   force =     0.00000584    0.00000337    0.00003268
     atom   82 type  1   force =     0.00000000    0.00001330   -0.00002575
     atom   83 type  1   force =     0.00000278    0.00000481   -0.00000000
     atom   84 type  2   force =    -0.00001024   -0.00000591    0.00000474
     atom   85 type  2   force =     0.00000000    0.00005350    0.00002728
     atom   86 type  1   force =     0.00001152    0.00000665    0.00002575
     atom   87 type  1   force =     0.00000000    0.00000674   -0.00003268
     atom   88 type  1   force =     0.00000453    0.00000785   -0.00000000
     atom   89 type  2   force =     0.00004633    0.00002675   -0.00002728
     atom   90 type  2   force =     0.00000000   -0.00001182   -0.00000474

     Total force =     0.000612     Total SCF correction =     0.000350
     SCF correction compared to forces is large: reduce conv_thr to get better values


     Computing stress (Cartesian axis) and pressure

          total   stress  (Ry/bohr**3)                   (kbar)     P=       -0.03
   0.00000430   0.00000000  -0.00000000            0.63        0.00       -0.00
   0.00000000   0.00000430  -0.00000000            0.00        0.63       -0.00
   0.00000000   0.00000000  -0.00000914            0.00        0.00       -1.34

     kinetic stress (kbar)  38988.22      0.00      0.00
                                0.00  38988.22     -0.00
                                0.00     -0.00  38999.76

     local   stress (kbar)  -5645.81     -0.00      0.00
                               -0.00  -5645.82     -0.00
                                0.00     -0.00  -6590.80

     nonloc. stress (kbar) -19071.16     -0.00      0.00
                               -0.00 -19071.16     -0.00
                                0.00     -0.00 -19084.84

     hartree stress (kbar)  10903.12     -0.00     -0.00
                               -0.00  10903.12     -0.00
                               -0.00     -0.00  11381.79

     exc-cor stress (kbar)   3414.43      0.00      0.00
                                0.00   3414.43      0.00
                                0.00      0.00   3414.43

     corecor stress (kbar)  -8552.06      0.00     -0.00
                                0.00  -8552.06      0.00
                               -0.00      0.00  -8552.43

     ewald   stress (kbar) -20036.12      0.00     -0.00
                                0.00 -20036.12      0.00
                               -0.00      0.00 -19569.25

     hubbard stress (kbar)      0.00      0.00      0.00
                                0.00      0.00      0.00
                                0.00      0.00      0.00

     DFT-D   stress (kbar)      0.00      0.00      0.00
                                0.00      0.00      0.00
                                0.00      0.00      0.00

     XDM     stress (kbar)      0.00      0.00      0.00
                                0.00      0.00      0.00
                                0.00      0.00      0.00

     dft-nl  stress (kbar)      0.00      0.00      0.00
                                0.00      0.00      0.00
                                0.00      0.00      0.00

     TS-vdW  stress (kbar)      0.00      0.00      0.00
                                0.00      0.00      0.00
                                0.00      0.00      0.00

     MDB     stress (kbar)      0.00      0.00      0.00
                                0.00      0.00      0.00
                                0.00      0.00      0.00

     3D-RISM stress (kbar)      0.00      0.00      0.00
                                0.00      0.00      0.00
                                0.00      0.00      0.00

