LAMMPS (24 Mar 2022)
Reading data file ...
  triclinic box = (0 0 0) to (4.6043006 3.9874412 7.2764395) with tilt (-2.3021503 0 0)
WARNING: Triclinic box skew is large (../domain.cpp:228)
  3 by 4 by 4 MPI processor grid
  reading atoms ...
  5 atoms
  read_data CPU = 0.367 seconds
Use the NEP4 potential with 2 atom types.
    type 0( Mg with Z = 12).
    type 1( Bi with Z = 83).
    has universal ZBL with inner cutoff 0.75 A and outer cutoff 1.5 A.
    radial cutoff = 6 A.
    angular cutoff = 5 A.
    n_max_radial = 4.
    n_max_angular = 4.
    basis_size_radial = 10.
    basis_size_angular = 10.
    l_max_3body = 4.
    l_max_4body = 2.
    l_max_5body = 0.
    ANN = 30-80-1.
    number of neural network parameters = 5121.
    number of descriptor parameters = 440.
    total number of parameters = 5561.
Neighbor list info ...
  update every 1 steps, delay 0 steps, check yes
  max neighbors/atom: 2000, page size: 100000
  master list distance cutoff = 7
  ghost atom cutoff = 7
  1 neighbor lists, perpetual/occasional/extra = 1 0 0
  (1) pair nep, perpetual
      attributes: full, newton on
      pair build: full/nsq
      stencil: none
      bin: none
WARNING: Proc sub-domain size < neighbor skin, could lead to lost atoms (../domain.cpp:974)
Setting up cg style minimization ...
  Unit style    : metal
  Current step  : 0
WARNING: Energy due to 3 extra global DOFs will be included in minimizer energies
Per MPI rank memory allocation (min/avg/max) = 4.171 | 4.171 | 4.171 Mbytes
   Step          Temp          PotEng         Press           Pxx            Pyy            Pzz            Pxy            Pxz            Pyz             Lx             Ly             Lz           Volume    
         0   0             -15.622825     -212.6143      -313.68602     -313.68133     -10.475552      0.0041332055  -0.0030825731   0.0017694635   4.6043006      3.9874412      7.2764395      133.5909     
         1   0             -15.622829     -124.22376     -205.54638     -205.54261      38.417713      0.0042694913  -0.0030430718   0.0016662693   4.6038401      3.9870425      7.2764152      133.56374    
         2   0             -15.622832     -46.064737     -102.86832     -102.8657       67.539811      0.0044052102  -0.0029718987   0.0015316548   4.6033797      3.9866438      7.2765512      133.53952    
         3   0             -15.622835      9.9121331     -12.328137     -12.327188      54.391724      0.0044992187  -0.0028043193   0.0013216026   4.6029193      3.986245       7.2770289      133.52157    
         4   0             -15.622836     -19.121417     -15.874205     -15.87463      -25.615416      0.004211977   -0.0024289878   0.0010903358   4.6028149      3.9861546      7.2777565      133.52887    
         5   0             -15.622839      93.177383      88.798845      88.798319      101.93499      0.0024203708  -0.0012493552   0.00077939079  4.6024114      3.9858052      7.2770289      133.49211    
         6   0             -15.622844     -44.920986     -52.073165     -52.073434     -30.616359     -0.0006021475   0.00066807     0.00029287677  4.6028097      3.9861501      7.2777565      133.52857    
         7   0             -15.622845      29.359382      29.843924      29.8441        28.390122     -0.0024641988   0.0017735581  -3.3635125e-05  4.6024074      3.9858017      7.2776116      133.50257    
         8   0             -15.622845      11.285451      13.919041      13.919265      6.0180475     -0.002875658    0.0020002331  -0.00015684384  4.6024223      3.9858146      7.2777969      133.50683    
         9   0             -15.622845     -7.9683156     -8.0771804     -8.0770941     -7.7506724     -0.0025433202   0.0017819458  -0.0001587845   4.6025079      3.9858887      7.2778553      133.51287    
        10   0             -15.622846      2.6272959     -6.858042      -6.8584319      21.598362     -0.00064719793  0.00048848742 -0.00013653908  4.6025245      3.9859032      7.2777036      133.51105    
        11   0             -15.622846      0.039743493    0.048975847    0.048900227    0.021354406    0.00050905701 -0.00039073659 -5.5967826e-05  4.6024541      3.9858421      7.2780113      133.51261    
        12   0             -15.622846     -1.2404722     -1.3901862     -1.389287      -0.94194335    -0.00046412763  0.00020243176  7.3777023e-05  4.602457       3.9858447      7.2780206      133.51295    
        13   0             -15.622846      0.028462757   -0.088703226   -0.088031714    0.26212321    -0.00058928073  0.00034102797  6.5773118e-05  4.6024515      3.9858399      7.2780166      133.51255    
        14   0             -15.622846     -0.0024406325   0.011244536    0.011268804   -0.029835238   -0.0003564339   0.00027304067  6.9266825e-06  4.6024506      3.9858391      7.2780196      133.51256    
        15   0             -15.622846     -0.0069672692  -0.0075391349  -0.0081305854  -0.0052320871   0.0002471577  -7.7242904e-05 -5.3723057e-05  4.6024508      3.9858393      7.2780184      133.51255    
        16   0             -15.622846      0.0015014294   0.001283952    0.0010020138   0.0022183223   0.00015414088 -5.8286645e-05 -2.5737041e-05  4.6024508      3.9858393      7.2780183      133.51255    
        17   0             -15.622846     -0.0004460622   0.0026170121   0.0044638465  -0.0084190453  -0.00050975656  9.0204281e-05  0.00016642572  4.6024508      3.9858393      7.2780184      133.51255    
        18   0             -15.622846      0.00077896711  0.00051093206  0.00059812417  0.0012278451  -2.8402614e-06 -1.0737718e-06  6.808582e-06   4.6024508      3.9858393      7.2780183      133.51255    
        19   0             -15.622846     -0.0031083621  -0.003231951   -0.0037652889  -0.0023278464   0.00017379469 -3.1497329e-05 -4.9546182e-05  4.6024508      3.9858393      7.2780183      133.51255    
        20   0             -15.622846      3.7588187e-05  0.00091069424 -0.00069449271 -0.00010343696  0.00047189403 -7.8167122e-05 -0.00014709822  4.6024508      3.9858393      7.2780183      133.51255    
        21   0             -15.622846     -1.9516417e-06 -2.2346587e-06  5.941299e-06  -9.5615654e-06  6.9725092e-06  5.8061016e-06 -7.3156769e-07  4.6024508      3.9858393      7.2780183      133.51255    
        22   0             -15.622846     -5.3074509e-06 -9.6839575e-06 -1.6305106e-06 -4.6078847e-06  1.476157e-05   7.7369524e-07 -2.7237234e-07  4.6024508      3.9858393      7.2780183      133.51255    
        23   0             -15.622846      1.4642806e-06 -5.1661312e-07  3.037487e-06   1.8719679e-06  1.59848e-05    6.265794e-07  -6.6263226e-07  4.6024508      3.9858393      7.2780183      133.51255    
        24   0             -15.622846     -3.1892661e-07  1.2649097e-06 -1.5449259e-06 -6.7676361e-07  1.7619455e-05  5.2820129e-07 -1.1935496e-06  4.6024508      3.9858393      7.2780183      133.51255    
        25   0             -15.622846     -4.7105635e-07  3.644602e-07  -2.5316873e-06  7.5405803e-07  1.4726159e-05  4.0544888e-06 -4.5838298e-07  4.6024508      3.9858393      7.2780183      133.51255    
        26   0             -15.622846      9.8148923e-07  7.4433915e-07  1.7833805e-06  4.1674805e-07  1.3871594e-05  4.1500525e-06 -5.2370671e-08  4.6024508      3.9858393      7.2780183      133.51255    
        27   0             -15.622846     -1.8052911e-06 -2.6568263e-06  3.0734438e-07 -3.0663915e-06  1.4161482e-05  3.7363102e-06  1.7335907e-07  4.6024508      3.9858393      7.2780183      133.51255    
        28   0             -15.622846     -1.5273266e-07 -9.3486741e-07  7.4434697e-07 -2.6767755e-07  1.6436811e-05  2.4762025e-06  1.5328013e-07  4.6024508      3.9858393      7.2780183      133.51255    
        29   0             -15.622846      1.9624106e-07  1.7824464e-07  1.9858761e-07  2.1189094e-07  1.6857849e-05  2.4315572e-06  1.3645881e-09  4.6024508      3.9858393      7.2780183      133.51255    
        30   0             -15.622846     -1.4914908e-07 -5.4026575e-08 -2.4986851e-07 -1.4355216e-07  1.6870346e-05  2.456621e-06  -1.952489e-08   4.6024508      3.9858393      7.2780183      133.51255    
        31   0             -15.622846     -3.1610893e-08  1.0791343e-07 -1.3043611e-07 -7.2309996e-08  1.6524705e-05  2.7152678e-06 -3.2914124e-08  4.6024508      3.9858393      7.2780183      133.51255    
        32   0             -15.622846      3.8039188e-08  4.649556e-08   2.6730717e-08  4.0891286e-08  1.6465227e-05  2.7239547e-06 -1.3222414e-08  4.6024508      3.9858393      7.2780183      133.51255    
        33   0             -15.622846     -1.9087985e-08 -3.5102906e-08 -8.4154879e-09 -1.3745561e-08  1.6454977e-05  2.7239877e-06 -9.1067095e-09  4.6024508      3.9858393      7.2780183      133.51255    
        34   0             -15.622846     -9.2559959e-09 -2.4886579e-08  4.2159625e-08 -4.5041034e-08  1.6497497e-05  2.6850689e-06 -7.0423093e-09  4.6024508      3.9858393      7.2780183      133.51255    
        35   0             -15.622846      1.6157226e-08  1.4826547e-08  1.2921706e-08  2.0723425e-08  1.6518306e-05  2.681059e-06  -1.2863885e-08  4.6024508      3.9858393      7.2780183      133.51255    
        36   0             -15.622846     -2.2704567e-08 -2.2160466e-08 -2.204031e-08  -2.3912926e-08  1.6512953e-05  2.6850777e-06 -1.2095908e-08  4.6024508      3.9858393      7.2780183      133.51255    
        37   0             -15.622846      1.7909297e-09  5.1840205e-09  1.462712e-08  -1.4438351e-08  1.647617e-05   2.7136535e-06 -6.6411247e-09  4.6024508      3.9858393      7.2780183      133.51255    
        38   0             -15.622846     -9.9069579e-10 -3.1735129e-09 -6.5119798e-09  6.7134052e-09  1.6477301e-05  2.715303e-06  -6.9264292e-09  4.6024508      3.9858393      7.2780183      133.51255    
        39   0             -15.622846      1.7064015e-08  3.0380357e-08  7.5980453e-09  1.3213644e-08  1.6487053e-05  2.7157515e-06 -1.0051256e-09  4.6024508      3.9858393      7.2780183      133.51255    
        40   0             -15.622846     -3.797274e-09   4.4261145e-09 -8.2745151e-09 -7.5434214e-09  1.64852e-05    2.7162226e-06  1.124829e-09   4.6024508      3.9858393      7.2780183      133.51255    
        41   0             -15.622846     -1.3461672e-10 -1.3084745e-09  4.339932e-10   4.7063116e-10  1.6481657e-05  2.7165438e-06  2.5184751e-09  4.6024508      3.9858393      7.2780183      133.51255    
        42   0             -15.622846      5.3918854e-09  4.9071542e-09  6.1175389e-09  5.1509631e-09  1.6484265e-05  2.7140342e-06  1.3337685e-09  4.6024508      3.9858393      7.2780183      133.51255    
        43   0             -15.622846      9.7146087e-13  1.2715035e-10  4.0101905e-10 -5.2525501e-10  1.6485343e-05  2.7131944e-06  8.6213391e-10  4.6024508      3.9858393      7.2780183      133.51255    
        44   0             -15.622846     -7.1110936e-11 -1.2123832e-10 -1.0223654e-09  9.3027093e-10  1.6485296e-05  2.7133566e-06  5.8314546e-10  4.6024508      3.9858393      7.2780183      133.51255    
        45   0             -15.622846      4.9674958e-10  8.0711745e-10  1.8219055e-10  5.0094074e-10  1.6484132e-05  2.7138467e-06  7.9996998e-11  4.6024508      3.9858393      7.2780183      133.51255    
        46   0             -15.622846     -1.40501e-10    8.992952e-12  -1.7069955e-10 -2.5979639e-10  1.6483956e-05  2.7138854e-06  1.244244e-10   4.6024508      3.9858393      7.2780183      133.51255    
        47   0             -15.622846      4.4021055e-11 -4.8578595e-10  3.3673609e-10  2.8111302e-10  1.6483854e-05  2.7137496e-06  1.0109119e-10  4.6024508      3.9858393      7.2780183      133.51255    
        48   0             -15.622846      1.538794e-10   1.2740015e-10  2.013422e-10   1.3289585e-10  1.6484416e-05  2.7134395e-06 -2.5790952e-11  4.6024508      3.9858393      7.2780183      133.51255    
        49   0             -15.622846     -1.4360967e-10 -9.6757502e-11 -1.0058783e-10 -2.3348368e-10  1.6484441e-05  2.7134339e-06 -5.541357e-11   4.6024508      3.9858393      7.2780183      133.51255    
        50   0             -15.622846     -1.7283677e-10 -1.0658314e-10 -2.3972879e-10 -1.7219838e-10  1.64845e-05    2.713437e-06  -6.4004681e-11  4.6024508      3.9858393      7.2780183      133.51255    
        51   0             -15.622846     -2.6201687e-11 -1.0774889e-10  2.1150091e-11  7.9937351e-12  1.648447e-05   2.7134366e-06 -9.127862e-12   4.6024508      3.9858393      7.2780183      133.51255    
        52   0             -15.622846      2.8505437e-10  4.3915582e-10  1.5654398e-10  2.5946332e-10  1.6484538e-05  2.7134418e-06 -3.7050013e-11  4.6024508      3.9858393      7.2780183      133.51255    
        53   0             -15.622846      6.5781779e-11  4.3982197e-10 -1.3023127e-10 -1.1224536e-10  1.6484556e-05  2.7135046e-06 -1.0834348e-11  4.6024508      3.9858393      7.2780183      133.51255    
        54   0             -15.622846     -1.6875663e-11 -8.1602713e-12 -7.1610544e-12 -3.5305664e-11  1.6484478e-05  2.7134653e-06  1.1981825e-11  4.6024508      3.9858393      7.2780183      133.51255    
        55   0             -15.622846      8.1547201e-11 -2.464735e-11   4.4132079e-11  2.2515687e-10  1.6484436e-05  2.7134772e-06  3.3106286e-11  4.6024508      3.9858393      7.2780183      133.51255    
        56   0             -15.622846     -1.4377621e-11 -5.9786477e-11  4.6630122e-12  1.1990603e-11  1.6484435e-05  2.7134929e-06  1.5374066e-11  4.6024508      3.9858393      7.2780183      133.51255    
        57   0             -15.622846      5.4623857e-11  1.4521952e-10  5.9286869e-11 -4.063482e-11   1.6484479e-05  2.7134849e-06  2.5459912e-11  4.6024508      3.9858393      7.2780183      133.51255    
        58   0             -15.622846      1.3481101e-10  4.3390994e-10  1.1157922e-11 -4.063482e-11   1.6484535e-05  2.7135034e-06 -2.9420278e-11  4.6024508      3.9858393      7.2780183      133.51255    
        59   0             -15.622846     -2.8782998e-11  2.4955442e-10 -2.4730618e-10 -8.8597231e-11  1.6484517e-05  2.7134828e-06 -4.7170157e-11  4.6024508      3.9858393      7.2780183      133.51255    
        60   0             -15.622846      6.3727833e-11 -6.3700077e-11  1.2931532e-10  1.2556826e-10  1.6484374e-05  2.7134958e-06  8.7079517e-11  4.6024508      3.9858393      7.2780183      133.51255    
        61   0             -15.622846      3.7470633e-11 -8.9346644e-11  7.0194987e-11  1.3156356e-10  1.6484384e-05  2.7135017e-06  8.2114658e-11  4.6024508      3.9858393      7.2780183      133.51255    
        62   0             -15.622846     -1.2409719e-10 -2.8227877e-11 -1.4855024e-10 -1.9551344e-10  1.6484378e-05  2.713555e-06   1.7540266e-11  4.6024508      3.9858393      7.2780183      133.51255    
        63   0             -15.622846     -5.5567562e-11  9.1761418e-11 -8.6598797e-11 -1.7186531e-10  1.6484447e-05  2.7134987e-06  3.5720468e-12  4.6024508      3.9858393      7.2780183      133.51255    
        64   0             -15.622846      9.2982683e-11  8.4517096e-11  1.7711119e-10  1.7319759e-11  1.6484438e-05  2.7134849e-06  5.3397581e-11  4.6024508      3.9858393      7.2780183      133.51255    
        65   0             -15.622846     -8.3545635e-12 -1.9484729e-10  2.2565648e-11  1.4721796e-10  1.6484442e-05  2.713447e-06   7.4443587e-11  4.6024508      3.9858393      7.2780183      133.51255    
        66   0             -15.622846      2.1705211e-11 -1.5104829e-10 -1.9318193e-11  2.3548211e-10  1.6484499e-05  2.713413e-06   5.1503953e-11  4.6024508      3.9858393      7.2780183      133.51255    
        67   0             -15.622846     -1.3617106e-10 -3.6554685e-11 -1.9709553e-10 -1.7486296e-10  1.6484529e-05  2.7134112e-06  2.4795718e-11  4.6024508      3.9858393      7.2780183      133.51255    
        68   0             -15.622846      6.9112502e-12  1.3098068e-10  1.0991386e-11 -1.2123832e-10  1.6484478e-05  2.713466e-06   6.7057293e-12  4.6024508      3.9858393      7.2780183      133.51255    
        69   0             -15.622846      2.2926476e-11  6.1118767e-11  7.9937351e-12 -3.330723e-13   1.6484505e-05  2.7133965e-06 -1.661974e-11   4.6024508      3.9858393      7.2780183      133.51255    
        70   0             -15.622846     -2.5369007e-11 -1.5454555e-10 -1.4988253e-12  7.9937351e-11  1.6484309e-05  2.7135478e-06  2.9177531e-12  4.6024508      3.9858393      7.2780183      133.51255    
        71   0             -15.622846     -2.1405446e-10 -3.114226e-10  -2.0050952e-10 -1.3023127e-10  1.6484253e-05  2.7135627e-06 -1.6418099e-11  4.6024508      3.9858393      7.2780183      133.51255    
        72   0             -15.622846      4.3105107e-11  2.0983555e-11  6.0702426e-11  4.7629339e-11  1.6484332e-05  2.7135327e-06 -1.8093869e-11  4.6024508      3.9858393      7.2780183      133.51255    
        73   0             -15.622846      6.1479595e-11  6.0286086e-11  8.951318e-11   3.4639519e-11  1.6484333e-05  2.7135177e-06 -8.0392488e-12  4.6024508      3.9858393      7.2780183      133.51255    
        74   0             -15.622846      3.7304097e-11  9.4009656e-11  2.3564865e-11 -5.6622291e-12  1.6484373e-05  2.7135058e-06 -5.4835907e-11  4.6024508      3.9858393      7.2780183      133.51255    
        75   0             -15.622846     -1.0280832e-10 -1.2190446e-10 -1.3089741e-10 -5.5623074e-11  1.6484336e-05  2.7135481e-06 -4.0159908e-11  4.6024508      3.9858393      7.2780183      133.51255    
        76   0             -15.622846      1.4732898e-10  1.4705142e-10  2.1399895e-10  8.0936568e-11  1.6484419e-05  2.7134781e-06 -1.5585418e-11  4.6024508      3.9858393      7.2780183      133.51255    
        77   0             -15.622846     -7.62458e-11   -1.4055651e-10 -3.3557034e-11 -5.4623857e-11  1.6484405e-05  2.713499e-06   1.5036416e-11  4.6024508      3.9858393      7.2780183      133.51255    
        78   0             -15.622846     -1.2481884e-10 -1.4904985e-10 -1.0350222e-10 -1.2190446e-10  1.6484404e-05  2.7134931e-06  3.7952263e-12  4.6024508      3.9858393      7.2780183      133.51255    
        79   0             -15.622846      7.6329068e-11  3.2474549e-11  2.5646567e-11  1.7086609e-10  1.6484415e-05  2.7134622e-06  1.2035075e-12  4.6024508      3.9858393      7.2780183      133.51255    
        80   0             -15.622846      8.7792306e-11  5.620595e-11   7.4608195e-11  1.3256277e-10  1.6484436e-05  2.7134526e-06  9.3533702e-12  4.6024508      3.9858393      7.2780183      133.51255    
        81   0             -15.622846     -7.2443225e-11 -4.7795875e-11 -7.2942833e-11 -9.6590966e-11  1.6484419e-05  2.7134666e-06 -1.9634328e-11  4.6024508      3.9858393      7.2780183      133.51255    
        82   0             -15.622846     -1.0569494e-10 -6.9945183e-11 -1.262344e-10  -1.2090524e-10  1.6484365e-05  2.7134965e-06 -3.0743899e-12  4.6024508      3.9858393      7.2780183      133.51255    
        83   0             -15.622846      1.5876446e-11  4.9960845e-12  7.6273556e-11 -3.3640302e-11  1.6484373e-05  2.713468e-06   2.4310398e-11  4.6024508      3.9858393      7.2780183      133.51255    
        84   0             -15.622846      2.5371782e-10  2.7603367e-10  2.3531558e-10  2.4980422e-10  1.6484417e-05  2.7134704e-06 -3.4695441e-11  4.6024508      3.9858393      7.2780183      133.51255    
        85   0             -15.622846      2.0300757e-10  3.1392064e-10  6.5615243e-11  2.2948681e-10  1.6484423e-05  2.7134711e-06 -8.3209503e-11  4.6024508      3.9858393      7.2780183      133.51255    
        86   0             -15.622846     -5.159845e-11  -1.2715035e-10 -6.3283737e-12 -2.1316627e-11  1.6484389e-05  2.7134875e-06  2.2374415e-11  4.6024508      3.9858393      7.2780183      133.51255    
        87   0             -15.622846     -1.0447368e-10 -2.1166745e-10 -3.114226e-11  -7.0611327e-11  1.6484419e-05  2.7134427e-06  3.8247392e-11  4.6024508      3.9858393      7.2780183      133.51255    
        88   0             -15.622846      9.6590966e-11  1.6079065e-10  8.3351342e-11  4.5630905e-11  1.6484439e-05  2.7134776e-06 -6.6445085e-12  4.6024508      3.9858393      7.2780183      133.51255    
        89   0             -15.622846      1.1552058e-10  1.1932315e-10  1.8194074e-10  4.5297832e-11  1.6484532e-05  2.7134057e-06  5.4932232e-11  4.6024508      3.9858393      7.2780183      133.51255    
        90   0             -15.622846     -5.6039414e-11 -1.7069955e-11 -7.7106237e-11 -7.394205e-11   1.6484567e-05  2.7133802e-06  4.4929655e-11  4.6024508      3.9858393      7.2780183      133.51255    
        91   0             -15.622846     -1.0261402e-10 -2.3223466e-10 -8.8264159e-11  1.2656747e-11  1.6484466e-05  2.7134571e-06  1.960891e-11   4.6024508      3.9858393      7.2780183      133.51255    
        92   0             -15.622846      1.9315418e-10  2.2823779e-10  6.7780213e-11  2.8344453e-10  1.6484441e-05  2.7134708e-06 -1.6193924e-11  4.6024508      3.9858393      7.2780183      133.51255    
        93   0             -15.622846     -9.2566343e-11 -1.5995797e-10 -9.1428346e-11 -2.6312712e-11  1.6484374e-05  2.7135143e-06  1.0972285e-11  4.6024508      3.9858393      7.2780183      133.51255    
        94   0             -15.622846     -1.3633759e-10 -1.7719446e-10 -1.0125398e-10 -1.3056434e-10  1.648438e-05   2.7135088e-06  2.1110173e-11  4.6024508      3.9858393      7.2780183      133.51255    
        95   0             -15.622846     -2.8921778e-11  4.8128947e-11 -7.6606628e-11 -5.8287652e-11  1.6484401e-05  2.7134895e-06 -5.9732719e-11  4.6024508      3.9858393      7.2780183      133.51255    
        96   0             -15.622846      5.3014007e-12 -9.8006524e-11  5.8620724e-11  5.5290001e-11  1.6484345e-05  2.7134969e-06 -2.0451005e-11  4.6024508      3.9858393      7.2780183      133.51255    
        97   0             -15.622846      2.1449856e-10  1.0783216e-10  3.2216418e-10  2.1349934e-10  1.6484367e-05  2.7134848e-06 -3.9014749e-12  4.6024508      3.9858393      7.2780183      133.51255    
        98   0             -15.622846      1.9404237e-10  1.930154e-10   2.185787e-10   1.7053302e-10  1.6484418e-05  2.7134872e-06 -5.8388579e-11  4.6024508      3.9858393      7.2780183      133.51255    
        99   0             -15.622846      5.2347863e-11  2.206604e-11   1.6095719e-10 -2.5979639e-11  1.6484373e-05  2.7135122e-06  2.6118108e-11  4.6024508      3.9858393      7.2780183      133.51255    
       100   0             -15.622846     -5.6622291e-12  4.2966326e-11 -3.330723e-13  -5.9619941e-11  1.6484401e-05  2.7135214e-06 -1.4985095e-11  4.6024508      3.9858393      7.2780183      133.51255    
Loop time of 0.131661 on 48 procs for 100 steps with 5 atoms

96.9% CPU use with 48 MPI tasks x no OpenMP threads

Minimization stats:
  Stopping criterion = max iterations
  Energy initial, next-to-last, final = 
     -15.6228247834713  -15.6228456131421  -15.6228456131421
  Force two-norm initial, final = 0.03787328 8.0049237e-15
  Force max component initial, final = 0.02615542 4.9671703e-15
  Final line search alpha, max atom move = 1 4.9671703e-15
  Iterations, force evaluations = 100 194

MPI task timing breakdown:
Section |  min time  |  avg time  |  max time  |%varavg| %total
---------------------------------------------------------------
Pair    | 1.8037e-05 | 0.00099829 | 0.0099338  |   0.0 |  0.76
Neigh   | 0          | 0          | 0          |   0.0 |  0.00
Comm    | 0.012048   | 0.018236   | 0.022261   |   3.1 | 13.85
Output  | 0.0032432  | 0.0053292  | 0.10141    |  19.2 |  4.05
Modify  | 0          | 0          | 0          |   0.0 |  0.00
Other   |            | 0.1071     |            |       | 81.34

Nlocal:       0.104167 ave           1 max           0 min
Histogram: 43 0 0 0 0 0 0 0 0 5
Nghost:        159.396 ave         176 max         143 min
Histogram: 12 0 0 6 1 17 0 0 0 12
Neighs:              0 ave           0 max           0 min
Histogram: 48 0 0 0 0 0 0 0 0 0
FullNghs:      4.91667 ave          50 max           0 min
Histogram: 43 0 0 0 0 0 0 0 1 4

Total # of neighbors = 236
Ave neighs/atom = 47.2
Neighbor list builds = 0
Dangerous builds = 0
Displacing atoms ...
System init for write_restart ...
WARNING: Proc sub-domain size < neighbor skin, could lead to lost atoms (../domain.cpp:974)
Reading restart file ...
  restart file = 24 Mar 2022, LAMMPS = 24 Mar 2022
  restoring atom style atomic from restart
  triclinic box = (0.00092487531 0.0008009656 -0.00078937289) to (4.6033757 3.9866403 7.2772289) with tilt (-2.3012254 0 0)
WARNING: Triclinic box skew is large (../domain.cpp:228)
  3 by 4 by 4 MPI processor grid
  pair style nep stores no restart info
  5 atoms
  read_restart CPU = 0.201 seconds
Use the NEP4 potential with 2 atom types.
    type 0( Mg with Z = 12).
    type 1( Bi with Z = 83).
    has universal ZBL with inner cutoff 0.75 A and outer cutoff 1.5 A.
    radial cutoff = 6 A.
    angular cutoff = 5 A.
    n_max_radial = 4.
    n_max_angular = 4.
    basis_size_radial = 10.
    basis_size_angular = 10.
    l_max_3body = 4.
    l_max_4body = 2.
    l_max_5body = 0.
    ANN = 30-80-1.
    number of neural network parameters = 5121.
    number of descriptor parameters = 440.
    total number of parameters = 5561.
Changing box ...
WARNING: Triclinic box skew is large (../domain.cpp:228)
  triclinic box = (0.00092487531 0.0008009656 -0.00078937289) to (4.6033711 3.9866403 7.2772289) with tilt (-2.3012254 0 0)
WARNING: Triclinic box skew is large (../domain.cpp:228)
  triclinic box = (0.00092487531 0.0008009656 -0.00078937289) to (4.6033711 3.9866403 7.2772289) with tilt (-2.3012231 0 0)
WARNING: Triclinic box skew is large (../domain.cpp:228)
  triclinic box = (0.00092487531 0.0008009656 -0.00078937289) to (4.6033711 3.9866403 7.2772289) with tilt (-2.3012231 0 0)
Neighbor list info ...
  update every 1 steps, delay 0 steps, check yes
  max neighbors/atom: 2000, page size: 100000
  master list distance cutoff = 7
  ghost atom cutoff = 7
  1 neighbor lists, perpetual/occasional/extra = 1 0 0
  (1) pair nep, perpetual
      attributes: full, newton on
      pair build: full/nsq
      stencil: none
      bin: none
WARNING: Proc sub-domain size < neighbor skin, could lead to lost atoms (../domain.cpp:974)
Setting up cg style minimization ...
  Unit style    : metal
  Current step  : 100
Per MPI rank memory allocation (min/avg/max) = 4.171 | 4.171 | 4.171 Mbytes
   Step          Temp          PotEng         Press           Pxx            Pyy            Pzz            Pxy            Pxz            Pyz             Lx             Ly             Lz           Volume    
       100   0             -15.622846      0.58224739     0.250654       0.81949502     0.67659315    -0.24466929     0.11203382     0.44930311     4.6024462      3.9858393      7.2780183      133.51241    
       101   0             -15.622846      0.42596088     0.74870469     0.29882146     0.2303565     -0.013108385   -0.044120203    0.050133402    4.6024462      3.9858393      7.2780183      133.51241    
       102   0             -15.622846      0.43296123     0.68243095     0.36973894     0.24671381    -0.023200517   -0.0097069856   0.067349808    4.6024462      3.9858393      7.2780183      133.51241    
       103   0             -15.622846      0.43207375     0.69672159     0.35597812     0.24352153    -0.0016912513  -0.0043804361   0.030113038    4.6024462      3.9858393      7.2780183      133.51241    
       104   0             -15.622846      0.42958984     0.68897089     0.36155202     0.2382466     -0.0010779613  -2.887498e-05   0.029026984    4.6024462      3.9858393      7.2780183      133.51241    
       105   0             -15.622846      0.43157498     0.69134173     0.35979886     0.24358436     0.00022399671 -0.00042538342  0.026774124    4.6024462      3.9858393      7.2780183      133.51241    
       106   0             -15.622846      0.43101389     0.6904414      0.36085298     0.2417473      1.3989858e-06  1.354061e-05   0.027157553    4.6024462      3.9858393      7.2780183      133.51241    
       107   0             -15.622846      0.43099134     0.6904582      0.36077164     0.24174418     2.2733884e-05 -1.960229e-06   0.027120579    4.6024462      3.9858393      7.2780183      133.51241    
       108   0             -15.622846      0.43098972     0.69043369     0.36077635     0.24175912     1.6493187e-05  2.7252177e-06  0.027131392    4.6024462      3.9858393      7.2780183      133.51241    
       109   0             -15.622846      0.43098972     0.69043369     0.36077635     0.24175912     1.6490673e-05  2.7220677e-06  0.027131395    4.6024462      3.9858393      7.2780183      133.51241    
       110   0             -15.622846      0.43098972     0.69043369     0.36077634     0.24175912     1.6484834e-05  2.7136837e-06  0.027131401    4.6024462      3.9858393      7.2780183      133.51241    
       111   0             -15.622846      0.43098972     0.69043369     0.36077634     0.24175912     1.6484192e-05  2.7135581e-06  0.027131402    4.6024462      3.9858393      7.2780183      133.51241    
       112   0             -15.622846      0.43098972     0.69043369     0.36077634     0.24175912     1.6484417e-05  2.7133822e-06  0.027131402    4.6024462      3.9858393      7.2780183      133.51241    
       113   0             -15.622846      0.43098972     0.69043369     0.36077634     0.24175912     1.6484435e-05  2.7133412e-06  0.027131402    4.6024462      3.9858393      7.2780183      133.51241    
       114   0             -15.622846      0.43098972     0.69043369     0.36077634     0.24175912     1.6484409e-05  2.713337e-06   0.027131402    4.6024462      3.9858393      7.2780183      133.51241    
       115   0             -15.622846      0.43098972     0.69043369     0.36077634     0.24175912     1.6484451e-05  2.7133271e-06  0.027131402    4.6024462      3.9858393      7.2780183      133.51241    
       116   0             -15.622846      0.43098972     0.69043369     0.36077634     0.24175912     1.6484451e-05  2.713327e-06   0.027131402    4.6024462      3.9858393      7.2780183      133.51241    
       117   0             -15.622846      0.43098972     0.69043369     0.36077634     0.24175912     1.6484429e-05  2.7133361e-06  0.027131402    4.6024462      3.9858393      7.2780183      133.51241    
       118   0             -15.622846      0.43098972     0.69043369     0.36077634     0.24175912     1.6484424e-05  2.7133346e-06  0.027131402    4.6024462      3.9858393      7.2780183      133.51241    
       119   0             -15.622846      0.43098972     0.69043369     0.36077634     0.24175912     1.6484365e-05  2.7134067e-06  0.027131402    4.6024462      3.9858393      7.2780183      133.51241    
       120   0             -15.622846      0.43098972     0.69043369     0.36077634     0.24175912     1.6484389e-05  2.7133847e-06  0.027131402    4.6024462      3.9858393      7.2780183      133.51241    
       121   0             -15.622846      0.43098972     0.69043369     0.36077634     0.24175912     1.6484479e-05  2.7133037e-06  0.027131402    4.6024462      3.9858393      7.2780183      133.51241    
       122   0             -15.622846      0.43098972     0.69043369     0.36077634     0.24175912     1.6484452e-05  2.7133204e-06  0.027131402    4.6024462      3.9858393      7.2780183      133.51241    
       123   0             -15.622846      0.43098972     0.69043369     0.36077634     0.24175912     1.6484452e-05  2.7133204e-06  0.027131402    4.6024462      3.9858393      7.2780183      133.51241    
Loop time of 0.00679746 on 48 procs for 23 steps with 5 atoms

95.8% CPU use with 48 MPI tasks x no OpenMP threads

Minimization stats:
  Stopping criterion = quadratic factors are zero
  Energy initial, next-to-last, final = 
     -15.6228456124719  -15.6228456131133  -15.6228456131133
  Force two-norm initial, final = 8.7219969e-05 3.2472022e-15
  Force max component initial, final = 4.471701e-05 1.7208457e-15
  Final line search alpha, max atom move = 1 1.7208457e-15
  Iterations, force evaluations = 23 46

MPI task timing breakdown:
Section |  min time  |  avg time  |  max time  |%varavg| %total
---------------------------------------------------------------
Pair    | 4.441e-06  | 0.00025008 | 0.0024964  |   0.0 |  3.68
Neigh   | 0          | 0          | 0          |   0.0 |  0.00
Comm    | 0.0024554  | 0.0044274  | 0.0050779  |   1.0 | 65.13
Output  | 0.00073265 | 0.00074322 | 0.0008045  |   0.0 | 10.93
Modify  | 0          | 0          | 0          |   0.0 |  0.00
Other   |            | 0.001377   |            |       | 20.25

Nlocal:       0.104167 ave           1 max           0 min
Histogram: 43 0 0 0 0 0 0 0 0 5
Nghost:        159.396 ave         176 max         143 min
Histogram: 12 0 0 6 1 17 0 0 0 12
Neighs:              0 ave           0 max           0 min
Histogram: 48 0 0 0 0 0 0 0 0 0
FullNghs:      4.91667 ave          50 max           0 min
Histogram: 43 0 0 0 0 0 0 0 1 4

Total # of neighbors = 236
Ave neighs/atom = 47.2
Neighbor list builds = 0
Dangerous builds = 0
Reading restart file ...
  restart file = 24 Mar 2022, LAMMPS = 24 Mar 2022
  restoring atom style atomic from restart
  triclinic box = (0.00092487531 0.0008009656 -0.00078937289) to (4.6033757 3.9866403 7.2772289) with tilt (-2.3012254 0 0)
WARNING: Triclinic box skew is large (../domain.cpp:228)
  3 by 4 by 4 MPI processor grid
  pair style nep stores no restart info
  5 atoms
  read_restart CPU = 0.092 seconds
Use the NEP4 potential with 2 atom types.
    type 0( Mg with Z = 12).
    type 1( Bi with Z = 83).
    has universal ZBL with inner cutoff 0.75 A and outer cutoff 1.5 A.
    radial cutoff = 6 A.
    angular cutoff = 5 A.
    n_max_radial = 4.
    n_max_angular = 4.
    basis_size_radial = 10.
    basis_size_angular = 10.
    l_max_3body = 4.
    l_max_4body = 2.
    l_max_5body = 0.
    ANN = 30-80-1.
    number of neural network parameters = 5121.
    number of descriptor parameters = 440.
    total number of parameters = 5561.
Changing box ...
  triclinic box = (0.00092487531 0.0008009656 -0.00078937289) to (4.6033803 3.9866403 7.2772289) with tilt (-2.3012254 0 0)
WARNING: Triclinic box skew is large (../domain.cpp:228)
  triclinic box = (0.00092487531 0.0008009656 -0.00078937289) to (4.6033803 3.9866403 7.2772289) with tilt (-2.3012277 0 0)
WARNING: Triclinic box skew is large (../domain.cpp:228)
  triclinic box = (0.00092487531 0.0008009656 -0.00078937289) to (4.6033803 3.9866403 7.2772289) with tilt (-2.3012277 0 0)
Neighbor list info ...
  update every 1 steps, delay 0 steps, check yes
  max neighbors/atom: 2000, page size: 100000
  master list distance cutoff = 7
  ghost atom cutoff = 7
  1 neighbor lists, perpetual/occasional/extra = 1 0 0
  (1) pair nep, perpetual
      attributes: full, newton on
      pair build: full/nsq
      stencil: none
      bin: none
WARNING: Proc sub-domain size < neighbor skin, could lead to lost atoms (../domain.cpp:974)
Setting up cg style minimization ...
  Unit style    : metal
  Current step  : 100
Per MPI rank memory allocation (min/avg/max) = 4.171 | 4.171 | 4.171 Mbytes
   Step          Temp          PotEng         Press           Pxx            Pyy            Pzz            Pxy            Pxz            Pyz             Lx             Ly             Lz           Volume    
       100   0             -15.622846     -0.29604893    -1.3758578      0.27937477     0.20833626    -0.24466529     0.1120317      0.530591       4.6024554      3.9858393      7.2780183      133.51268    
       101   0             -15.622846     -0.44096508    -0.64927151    -0.43399255    -0.2396312     -0.015077121   -0.042792595   -0.019769797    4.6024554      3.9858393      7.2780183      133.51268    
       102   0             -15.622846     -0.42983743    -0.69935314    -0.34864256    -0.24151659    -0.021087667   -0.013992856    0.0081313211   4.6024554      3.9858393      7.2780183      133.51268    
       103   0             -15.622846     -0.42741982    -0.67792139    -0.36072408    -0.24361399    -0.0028462286  -0.0057712413  -0.024464579    4.6024554      3.9858393      7.2780183      133.51268    
       104   0             -15.622846     -0.43269691    -0.69267244    -0.36144873    -0.24396955    -0.0011011228  -0.00062669016 -0.025199038    4.6024554      3.9858393      7.2780183      133.51268    
       105   0             -15.622846     -0.43036536    -0.68961946    -0.36240011    -0.23907651     0.00012681164 -0.00051015742 -0.027640013    4.6024554      3.9858393      7.2780183      133.51268    
       106   0             -15.622846     -0.43093218    -0.69031559    -0.36057486    -0.24190608    -8.5725177e-06  1.4652355e-06 -0.027081773    4.6024554      3.9858393      7.2780183      133.51268    
       107   0             -15.622846     -0.43099307    -0.69039951    -0.36079991    -0.2417798      2.4609972e-05 -3.5014496e-06 -0.027152494    4.6024554      3.9858393      7.2780183      133.51268    
       108   0             -15.622846     -0.43098697    -0.69042855    -0.36077438    -0.24175797     1.6487995e-05  2.7169863e-06 -0.027132358    4.6024554      3.9858393      7.2780183      133.51268    
       109   0             -15.622846     -0.43098697    -0.69042856    -0.36077438    -0.24175797     1.6486416e-05  2.7166479e-06 -0.027132357    4.6024554      3.9858393      7.2780183      133.51268    
       110   0             -15.622846     -0.43098697    -0.69042855    -0.36077438    -0.24175797     1.6485198e-05  2.7138309e-06 -0.027132358    4.6024554      3.9858393      7.2780183      133.51268    
       111   0             -15.622846     -0.43098697    -0.69042856    -0.36077438    -0.24175797     1.6484113e-05  2.7141483e-06 -0.027132358    4.6024554      3.9858393      7.2780183      133.51268    
       112   0             -15.622846     -0.43098697    -0.69042856    -0.36077438    -0.24175797     1.6484479e-05  2.7135629e-06 -0.027132358    4.6024554      3.9858393      7.2780183      133.51268    
       113   0             -15.622846     -0.43098697    -0.69042855    -0.36077438    -0.24175797     1.6484376e-05  2.7136054e-06 -0.027132358    4.6024554      3.9858393      7.2780183      133.51268    
       114   0             -15.622846     -0.43098697    -0.69042855    -0.36077438    -0.24175797     1.6484371e-05  2.7136018e-06 -0.027132358    4.6024554      3.9858393      7.2780183      133.51268    
       115   0             -15.622846     -0.43098697    -0.69042855    -0.36077438    -0.24175797     1.6484387e-05  2.7136166e-06 -0.027132358    4.6024554      3.9858393      7.2780183      133.51268    
       116   0             -15.622846     -0.43098697    -0.69042856    -0.36077438    -0.24175797     1.6484402e-05  2.7136003e-06 -0.027132358    4.6024554      3.9858393      7.2780183      133.51268    
       117   0             -15.622846     -0.43098697    -0.69042856    -0.36077438    -0.24175797     1.6484402e-05  2.7136003e-06 -0.027132358    4.6024554      3.9858393      7.2780183      133.51268    
Loop time of 0.00505903 on 48 procs for 17 steps with 5 atoms

99.5% CPU use with 48 MPI tasks x no OpenMP threads

Minimization stats:
  Stopping criterion = quadratic factors are zero
  Energy initial, next-to-last, final = 
     -15.6228456123781  -15.6228456131133  -15.6228456131133
  Force two-norm initial, final = 9.4133774e-05 4.8603472e-15
  Force max component initial, final = 5.108047e-05 2.615963e-15
  Final line search alpha, max atom move = 1 2.615963e-15
  Iterations, force evaluations = 17 34

MPI task timing breakdown:
Section |  min time  |  avg time  |  max time  |%varavg| %total
---------------------------------------------------------------
Pair    | 3.39e-06   | 0.00018811 | 0.0020021  |   0.0 |  3.72
Neigh   | 0          | 0          | 0          |   0.0 |  0.00
Comm    | 0.0017801  | 0.003279   | 0.003777   |   0.9 | 64.81
Output  | 0.0005354  | 0.00054483 | 0.0005916  |   0.0 | 10.77
Modify  | 0          | 0          | 0          |   0.0 |  0.00
Other   |            | 0.001047   |            |       | 20.70

Nlocal:       0.104167 ave           1 max           0 min
Histogram: 43 0 0 0 0 0 0 0 0 5
Nghost:        159.396 ave         176 max         143 min
Histogram: 12 0 0 6 1 17 0 0 0 12
Neighs:              0 ave           0 max           0 min
Histogram: 48 0 0 0 0 0 0 0 0 0
FullNghs:      4.91667 ave          50 max           0 min
Histogram: 43 0 0 0 0 0 0 0 1 4

Total # of neighbors = 236
Ave neighs/atom = 47.2
Neighbor list builds = 0
Dangerous builds = 0
Reading restart file ...
  restart file = 24 Mar 2022, LAMMPS = 24 Mar 2022
  restoring atom style atomic from restart
  triclinic box = (0.00092487531 0.0008009656 -0.00078937289) to (4.6033757 3.9866403 7.2772289) with tilt (-2.3012254 0 0)
WARNING: Triclinic box skew is large (../domain.cpp:228)
  3 by 4 by 4 MPI processor grid
  pair style nep stores no restart info
  5 atoms
  read_restart CPU = 0.001 seconds
Use the NEP4 potential with 2 atom types.
    type 0( Mg with Z = 12).
    type 1( Bi with Z = 83).
    has universal ZBL with inner cutoff 0.75 A and outer cutoff 1.5 A.
    radial cutoff = 6 A.
    angular cutoff = 5 A.
    n_max_radial = 4.
    n_max_angular = 4.
    basis_size_radial = 10.
    basis_size_angular = 10.
    l_max_3body = 4.
    l_max_4body = 2.
    l_max_5body = 0.
    ANN = 30-80-1.
    number of neural network parameters = 5121.
    number of descriptor parameters = 440.
    total number of parameters = 5561.
Changing box ...
WARNING: Triclinic box skew is large (../domain.cpp:228)
  triclinic box = (0.00092487531 0.0008009656 -0.00078937289) to (4.6033757 3.9866363 7.2772289) with tilt (-2.3012254 0 0)
WARNING: Triclinic box skew is large (../domain.cpp:228)
  triclinic box = (0.00092487531 0.0008009656 -0.00078937289) to (4.6033757 3.9866363 7.2772289) with tilt (-2.3012254 0 0)
Neighbor list info ...
  update every 1 steps, delay 0 steps, check yes
  max neighbors/atom: 2000, page size: 100000
  master list distance cutoff = 7
  ghost atom cutoff = 7
  1 neighbor lists, perpetual/occasional/extra = 1 0 0
  (1) pair nep, perpetual
      attributes: full, newton on
      pair build: full/nsq
      stencil: none
      bin: none
WARNING: Proc sub-domain size < neighbor skin, could lead to lost atoms (../domain.cpp:974)
Setting up cg style minimization ...
  Unit style    : metal
  Current step  : 100
Per MPI rank memory allocation (min/avg/max) = 4.171 | 4.171 | 4.171 Mbytes
   Step          Temp          PotEng         Press           Pxx            Pyy            Pzz            Pxy            Pxz            Pyz             Lx             Ly             Lz           Volume    
       100   0             -15.622846      0.58225037    -0.2925455      1.3627015      0.67659507    -0.2446683      0.11203324     0.53059443     4.6024508      3.9858353      7.2780183      133.51241    
       101   0             -15.622846      0.42746762     0.41539523     0.63234522     0.23466241    -0.01534472    -0.042612295   -0.019130898    4.6024508      3.9858353      7.2780183      133.51241    
       102   0             -15.622846      0.43152493     0.35010671     0.70149878     0.2429693     -0.02109761    -0.013829006    0.0082403499   4.6024508      3.9858353      7.2780183      133.51241    
       103   0             -15.622846      0.43212638     0.3666439      0.68598741     0.24374782    -0.0025424235  -0.0049498116  -0.024633469    4.6024508      3.9858353      7.2780183      133.51241    
       104   0             -15.622846      0.42955721     0.3592732      0.69126685     0.23813157    -0.0010265701  -0.00036454009 -0.025205619    4.6024508      3.9858353      7.2780183      133.51241    
       105   0             -15.622846      0.43154459     0.36164722     0.68948126     0.2435053      6.2323395e-05 -0.00041490718 -0.027454595    4.6024508      3.9858353      7.2780183      133.51241    
       106   0             -15.622846      0.43101545     0.36078687     0.69050787     0.24175159     6.4039992e-06  9.6274098e-06 -0.027106492    4.6024508      3.9858353      7.2780183      133.51241    
       107   0             -15.622846      0.4309915      0.36079982     0.690432       0.24174267     2.0125109e-05 -4.1029141e-08 -0.027140033    4.6024508      3.9858353      7.2780183      133.51241    
       108   0             -15.622846      0.43098972     0.36077675     0.69043328     0.24175912     1.6495473e-05  2.7273737e-06 -0.027131042    4.6024508      3.9858353      7.2780183      133.51241    
       109   0             -15.622846      0.43098972     0.36077675     0.69043328     0.24175912     1.6492149e-05  2.7242586e-06 -0.027131039    4.6024508      3.9858353      7.2780183      133.51241    
       110   0             -15.622846      0.43098972     0.36077676     0.69043327     0.24175912     1.6485378e-05  2.7138881e-06 -0.027131034    4.6024508      3.9858353      7.2780183      133.51241    
       111   0             -15.622846      0.43098972     0.36077676     0.69043328     0.24175912     1.6483992e-05  2.7140415e-06 -0.027131032    4.6024508      3.9858353      7.2780183      133.51241    
       112   0             -15.622846      0.43098972     0.36077676     0.69043328     0.24175912     1.6484423e-05  2.7135052e-06 -0.027131033    4.6024508      3.9858353      7.2780183      133.51241    
       113   0             -15.622846      0.43098972     0.36077676     0.69043328     0.24175912     1.6484603e-05  2.7133681e-06 -0.027131033    4.6024508      3.9858353      7.2780183      133.51241    
       114   0             -15.622846      0.43098972     0.36077676     0.69043328     0.24175912     1.6484565e-05  2.7133752e-06 -0.027131033    4.6024508      3.9858353      7.2780183      133.51241    
       115   0             -15.622846      0.43098972     0.36077676     0.69043328     0.24175912     1.6484472e-05  2.7134587e-06 -0.027131033    4.6024508      3.9858353      7.2780183      133.51241    
       116   0             -15.622846      0.43098972     0.36077676     0.69043328     0.24175912     1.6484474e-05  2.7134685e-06 -0.027131033    4.6024508      3.9858353      7.2780183      133.51241    
       117   0             -15.622846      0.43098972     0.36077676     0.69043328     0.24175912     1.6484527e-05  2.7134204e-06 -0.027131033    4.6024508      3.9858353      7.2780183      133.51241    
       118   0             -15.622846      0.43098972     0.36077676     0.69043328     0.24175912     1.648443e-05   2.7134978e-06 -0.027131033    4.6024508      3.9858353      7.2780183      133.51241    
       119   0             -15.622846      0.43098972     0.36077676     0.69043328     0.24175912     1.6484477e-05  2.7134436e-06 -0.027131033    4.6024508      3.9858353      7.2780183      133.51241    
       120   0             -15.622846      0.43098972     0.36077676     0.69043328     0.24175912     1.6484508e-05  2.7134244e-06 -0.027131033    4.6024508      3.9858353      7.2780183      133.51241    
       121   0             -15.622846      0.43098972     0.36077676     0.69043328     0.24175912     1.6484528e-05  2.7134168e-06 -0.027131033    4.6024508      3.9858353      7.2780183      133.51241    
       122   0             -15.622846      0.43098972     0.36077676     0.69043328     0.24175912     1.648445e-05   2.713474e-06  -0.027131033    4.6024508      3.9858353      7.2780183      133.51241    
       123   0             -15.622846      0.43098972     0.36077676     0.69043328     0.24175912     1.648445e-05   2.7134738e-06 -0.027131033    4.6024508      3.9858353      7.2780183      133.51241    
       124   0             -15.622846      0.43098972     0.36077676     0.69043328     0.24175912     1.648456e-05   2.7133744e-06 -0.027131033    4.6024508      3.9858353      7.2780183      133.51241    
       125   0             -15.622846      0.43098972     0.36077676     0.69043328     0.24175912     1.6484481e-05  2.7134605e-06 -0.027131033    4.6024508      3.9858353      7.2780183      133.51241    
       126   0             -15.622846      0.43098972     0.36077676     0.69043328     0.24175912     1.6484482e-05  2.7134613e-06 -0.027131033    4.6024508      3.9858353      7.2780183      133.51241    
       127   0             -15.622846      0.43098972     0.36077676     0.69043328     0.24175912     1.6484469e-05  2.7134654e-06 -0.027131033    4.6024508      3.9858353      7.2780183      133.51241    
       128   0             -15.622846      0.43098972     0.36077676     0.69043328     0.24175912     1.6484536e-05  2.7134021e-06 -0.027131033    4.6024508      3.9858353      7.2780183      133.51241    
       129   0             -15.622846      0.43098972     0.36077676     0.69043328     0.24175912     1.6484463e-05  2.7134544e-06 -0.027131033    4.6024508      3.9858353      7.2780183      133.51241    
       130   0             -15.622846      0.43098972     0.36077676     0.69043328     0.24175912     1.6484458e-05  2.713471e-06  -0.027131033    4.6024508      3.9858353      7.2780183      133.51241    
       131   0             -15.622846      0.43098972     0.36077676     0.69043328     0.24175912     1.6484561e-05  2.7133618e-06 -0.027131033    4.6024508      3.9858353      7.2780183      133.51241    
       132   0             -15.622846      0.43098972     0.36077676     0.69043328     0.24175912     1.6484438e-05  2.7134822e-06 -0.027131033    4.6024508      3.9858353      7.2780183      133.51241    
       133   0             -15.622846      0.43098972     0.36077676     0.69043328     0.24175912     1.648442e-05   2.7134958e-06 -0.027131033    4.6024508      3.9858353      7.2780183      133.51241    
       134   0             -15.622846      0.43098972     0.36077676     0.69043328     0.24175912     1.648456e-05   2.7133656e-06 -0.027131033    4.6024508      3.9858353      7.2780183      133.51241    
       135   0             -15.622846      0.43098972     0.36077676     0.69043328     0.24175912     1.648456e-05   2.7133654e-06 -0.027131033    4.6024508      3.9858353      7.2780183      133.51241    
       136   0             -15.622846      0.43098972     0.36077676     0.69043328     0.24175912     1.6484451e-05  2.7134621e-06 -0.027131033    4.6024508      3.9858353      7.2780183      133.51241    
       137   0             -15.622846      0.43098972     0.36077676     0.69043328     0.24175912     1.6484491e-05  2.7134208e-06 -0.027131033    4.6024508      3.9858353      7.2780183      133.51241    
       138   0             -15.622846      0.43098972     0.36077676     0.69043328     0.24175912     1.6484514e-05  2.7133952e-06 -0.027131033    4.6024508      3.9858353      7.2780183      133.51241    
       139   0             -15.622846      0.43098972     0.36077676     0.69043328     0.24175912     1.6484475e-05  2.7134375e-06 -0.027131033    4.6024508      3.9858353      7.2780183      133.51241    
       140   0             -15.622846      0.43098972     0.36077676     0.69043328     0.24175912     1.6484525e-05  2.7133923e-06 -0.027131033    4.6024508      3.9858353      7.2780183      133.51241    
       141   0             -15.622846      0.43098972     0.36077676     0.69043328     0.24175912     1.6484491e-05  2.7134314e-06 -0.027131033    4.6024508      3.9858353      7.2780183      133.51241    
       142   0             -15.622846      0.43098972     0.36077676     0.69043328     0.24175912     1.6484453e-05  2.7134613e-06 -0.027131033    4.6024508      3.9858353      7.2780183      133.51241    
       143   0             -15.622846      0.43098972     0.36077676     0.69043328     0.24175912     1.6484505e-05  2.7134218e-06 -0.027131033    4.6024508      3.9858353      7.2780183      133.51241    
       144   0             -15.622846      0.43098972     0.36077676     0.69043328     0.24175912     1.6484531e-05  2.713406e-06  -0.027131033    4.6024508      3.9858353      7.2780183      133.51241    
       145   0             -15.622846      0.43098972     0.36077676     0.69043328     0.24175912     1.6484466e-05  2.7134696e-06 -0.027131033    4.6024508      3.9858353      7.2780183      133.51241    
       146   0             -15.622846      0.43098972     0.36077676     0.69043328     0.24175912     1.6484507e-05  2.7134276e-06 -0.027131033    4.6024508      3.9858353      7.2780183      133.51241    
       147   0             -15.622846      0.43098972     0.36077676     0.69043328     0.24175912     1.6484494e-05  2.7134474e-06 -0.027131033    4.6024508      3.9858353      7.2780183      133.51241    
       148   0             -15.622846      0.43098972     0.36077676     0.69043328     0.24175912     1.6484501e-05  2.7134383e-06 -0.027131033    4.6024508      3.9858353      7.2780183      133.51241    
       149   0             -15.622846      0.43098972     0.36077676     0.69043328     0.24175912     1.6484488e-05  2.7134377e-06 -0.027131033    4.6024508      3.9858353      7.2780183      133.51241    
       150   0             -15.622846      0.43098972     0.36077676     0.69043328     0.24175912     1.6484488e-05  2.7134313e-06 -0.027131033    4.6024508      3.9858353      7.2780183      133.51241    
       151   0             -15.622846      0.43098972     0.36077676     0.69043328     0.24175912     1.6484576e-05  2.7133729e-06 -0.027131033    4.6024508      3.9858353      7.2780183      133.51241    
       152   0             -15.622846      0.43098972     0.36077676     0.69043328     0.24175912     1.6484553e-05  2.7133922e-06 -0.027131033    4.6024508      3.9858353      7.2780183      133.51241    
       153   0             -15.622846      0.43098972     0.36077676     0.69043328     0.24175912     1.6484457e-05  2.7134522e-06 -0.027131033    4.6024508      3.9858353      7.2780183      133.51241    
       154   0             -15.622846      0.43098972     0.36077676     0.69043328     0.24175912     1.6484592e-05  2.7133606e-06 -0.027131033    4.6024508      3.9858353      7.2780183      133.51241    
       155   0             -15.622846      0.43098972     0.36077676     0.69043328     0.24175912     1.6484463e-05  2.7134733e-06 -0.027131033    4.6024508      3.9858353      7.2780183      133.51241    
       156   0             -15.622846      0.43098972     0.36077676     0.69043328     0.24175912     1.6484444e-05  2.7134877e-06 -0.027131033    4.6024508      3.9858353      7.2780183      133.51241    
       157   0             -15.622846      0.43098972     0.36077676     0.69043328     0.24175912     1.6484536e-05  2.7133706e-06 -0.027131033    4.6024508      3.9858353      7.2780183      133.51241    
       158   0             -15.622846      0.43098972     0.36077676     0.69043328     0.24175912     1.6484536e-05  2.7133711e-06 -0.027131033    4.6024508      3.9858353      7.2780183      133.51241    
       159   0             -15.622846      0.43098972     0.36077676     0.69043328     0.24175912     1.6484466e-05  2.7134511e-06 -0.027131033    4.6024508      3.9858353      7.2780183      133.51241    
       160   0             -15.622846      0.43098972     0.36077676     0.69043328     0.24175912     1.6484466e-05  2.7134511e-06 -0.027131033    4.6024508      3.9858353      7.2780183      133.51241    
Loop time of 0.0180945 on 48 procs for 60 steps with 5 atoms

99.6% CPU use with 48 MPI tasks x no OpenMP threads

Minimization stats:
  Stopping criterion = quadratic factors are zero
  Energy initial, next-to-last, final = 
     -15.6228456123792  -15.6228456131133  -15.6228456131133
  Force two-norm initial, final = 9.4159262e-05 4.227478e-15
  Force max component initial, final = 5.1080943e-05 1.9984014e-15
  Final line search alpha, max atom move = 1 1.9984014e-15
  Iterations, force evaluations = 60 120

MPI task timing breakdown:
Section |  min time  |  avg time  |  max time  |%varavg| %total
---------------------------------------------------------------
Pair    | 1.2178e-05 | 0.0006422  | 0.0070603  |   0.0 |  3.55
Neigh   | 0          | 0          | 0          |   0.0 |  0.00
Comm    | 0.0064201  | 0.011676   | 0.01346    |   1.6 | 64.53
Output  | 0.0020039  | 0.0020379  | 0.0021929  |   0.1 | 11.26
Modify  | 0          | 0          | 0          |   0.0 |  0.00
Other   |            | 0.003738   |            |       | 20.66

Nlocal:       0.104167 ave           1 max           0 min
Histogram: 43 0 0 0 0 0 0 0 0 5
Nghost:        159.396 ave         176 max         143 min
Histogram: 12 0 0 6 1 17 0 0 0 12
Neighs:              0 ave           0 max           0 min
Histogram: 48 0 0 0 0 0 0 0 0 0
FullNghs:      4.91667 ave          50 max           0 min
Histogram: 43 0 0 0 0 0 0 0 1 4

Total # of neighbors = 236
Ave neighs/atom = 47.2
Neighbor list builds = 0
Dangerous builds = 0
Reading restart file ...
  restart file = 24 Mar 2022, LAMMPS = 24 Mar 2022
  restoring atom style atomic from restart
  triclinic box = (0.00092487531 0.0008009656 -0.00078937289) to (4.6033757 3.9866403 7.2772289) with tilt (-2.3012254 0 0)
WARNING: Triclinic box skew is large (../domain.cpp:228)
  3 by 4 by 4 MPI processor grid
  pair style nep stores no restart info
  5 atoms
  read_restart CPU = 0.081 seconds
Use the NEP4 potential with 2 atom types.
    type 0( Mg with Z = 12).
    type 1( Bi with Z = 83).
    has universal ZBL with inner cutoff 0.75 A and outer cutoff 1.5 A.
    radial cutoff = 6 A.
    angular cutoff = 5 A.
    n_max_radial = 4.
    n_max_angular = 4.
    basis_size_radial = 10.
    basis_size_angular = 10.
    l_max_3body = 4.
    l_max_4body = 2.
    l_max_5body = 0.
    ANN = 30-80-1.
    number of neural network parameters = 5121.
    number of descriptor parameters = 440.
    total number of parameters = 5561.
Changing box ...
WARNING: Triclinic box skew is large (../domain.cpp:228)
  triclinic box = (0.00092487531 0.0008009656 -0.00078937289) to (4.6033757 3.9866443 7.2772289) with tilt (-2.3012254 0 0)
WARNING: Triclinic box skew is large (../domain.cpp:228)
  triclinic box = (0.00092487531 0.0008009656 -0.00078937289) to (4.6033757 3.9866443 7.2772289) with tilt (-2.3012254 0 0)
Neighbor list info ...
  update every 1 steps, delay 0 steps, check yes
  max neighbors/atom: 2000, page size: 100000
  master list distance cutoff = 7
  ghost atom cutoff = 7
  1 neighbor lists, perpetual/occasional/extra = 1 0 0
  (1) pair nep, perpetual
      attributes: full, newton on
      pair build: full/nsq
      stencil: none
      bin: none
WARNING: Proc sub-domain size < neighbor skin, could lead to lost atoms (../domain.cpp:974)
Setting up cg style minimization ...
  Unit style    : metal
  Current step  : 100
Per MPI rank memory allocation (min/avg/max) = 4.171 | 4.171 | 4.171 Mbytes
   Step          Temp          PotEng         Press           Pxx            Pyy            Pzz            Pxy            Pxz            Pyz             Lx             Ly             Lz           Volume    
       100   0             -15.622846     -0.2960519     -0.83266352    -0.26382655     0.20833435    -0.24466628     0.11203229     0.44930286     4.6024508      3.9858433      7.2780183      133.51268    
       101   0             -15.622846     -0.44240674    -0.31592515    -0.76720297    -0.24409211    -0.01278891    -0.044335489    0.049586687    4.6024508      3.9858433      7.2780183      133.51268    
       102   0             -15.622846     -0.42778257    -0.36524345    -0.6792132     -0.23889106    -0.023152949   -0.010058624    0.067272447    4.6024508      3.9858433      7.2780183      133.51268    
       103   0             -15.622846     -0.42731642    -0.34731648    -0.69044177    -0.244191      -0.0018471582  -0.0051892986   0.030389797    4.6024508      3.9858433      7.2780183      133.51268    
       104   0             -15.622846     -0.4327042     -0.36304812    -0.69123966    -0.24382483    -0.0010967279  -0.00027119759  0.029062124    4.6024508      3.9858433      7.2780183      133.51268    
       105   0             -15.622846     -0.43033048    -0.35991447    -0.69204519    -0.23903178     0.00032946142 -0.00053356402  0.026593269    4.6024508      3.9858433      7.2780183      133.51268    
       106   0             -15.622846     -0.43093458    -0.36066469    -0.69022611    -0.24191295    -1.3948859e-05  1.1098795e-05  0.027185469    4.6024508      3.9858433      7.2780183      133.51268    
       107   0             -15.622846     -0.43099195    -0.36074315    -0.69045691    -0.24177579     2.9020298e-05 -6.7075976e-06  0.027111006    4.6024508      3.9858433      7.2780183      133.51268    
       108   0             -15.622846     -0.43098697    -0.36077396    -0.69042897    -0.24175797     1.6487833e-05  2.7179381e-06  0.027132726    4.6024508      3.9858433      7.2780183      133.51268    
       109   0             -15.622846     -0.43098697    -0.36077396    -0.69042897    -0.24175797     1.6486832e-05  2.7169378e-06  0.027132726    4.6024508      3.9858433      7.2780183      133.51268    
       110   0             -15.622846     -0.43098697    -0.36077396    -0.69042897    -0.24175797     1.6484756e-05  2.7138807e-06  0.027132727    4.6024508      3.9858433      7.2780183      133.51268    
       111   0             -15.622846     -0.43098697    -0.36077396    -0.69042897    -0.24175797     1.6484323e-05  2.7136949e-06  0.027132727    4.6024508      3.9858433      7.2780183      133.51268    
       112   0             -15.622846     -0.43098697    -0.36077396    -0.69042897    -0.24175797     1.6484381e-05  2.7134782e-06  0.027132727    4.6024508      3.9858433      7.2780183      133.51268    
       113   0             -15.622846     -0.43098697    -0.36077396    -0.69042897    -0.24175797     1.648435e-05   2.713492e-06   0.027132727    4.6024508      3.9858433      7.2780183      133.51268    
       114   0             -15.622846     -0.43098697    -0.36077396    -0.69042897    -0.24175797     1.648435e-05   2.713492e-06   0.027132727    4.6024508      3.9858433      7.2780183      133.51268    
Loop time of 0.0042232 on 48 procs for 14 steps with 5 atoms

99.3% CPU use with 48 MPI tasks x no OpenMP threads

Minimization stats:
  Stopping criterion = quadratic factors are zero
  Energy initial, next-to-last, final = 
     -15.6228456124708  -15.6228456131133  -15.6228456131133
  Force two-norm initial, final = 8.7192596e-05 3.630799e-15
  Force max component initial, final = 4.4716582e-05 2.4424907e-15
  Final line search alpha, max atom move = 1 2.4424907e-15
  Iterations, force evaluations = 14 28

MPI task timing breakdown:
Section |  min time  |  avg time  |  max time  |%varavg| %total
---------------------------------------------------------------
Pair    | 2.866e-06  | 0.00015545 | 0.0015956  |   0.0 |  3.68
Neigh   | 0          | 0          | 0          |   0.0 |  0.00
Comm    | 0.001526   | 0.0027575  | 0.0031092  |   0.8 | 65.29
Output  | 0.00047802 | 0.00048717 | 0.00051212 |   0.0 | 11.54
Modify  | 0          | 0          | 0          |   0.0 |  0.00
Other   |            | 0.0008231  |            |       | 19.49

Nlocal:       0.104167 ave           1 max           0 min
Histogram: 43 0 0 0 0 0 0 0 0 5
Nghost:        159.396 ave         176 max         143 min
Histogram: 12 0 0 6 1 17 0 0 0 12
Neighs:              0 ave           0 max           0 min
Histogram: 48 0 0 0 0 0 0 0 0 0
FullNghs:      4.91667 ave          50 max           0 min
Histogram: 43 0 0 0 0 0 0 0 1 4

Total # of neighbors = 236
Ave neighs/atom = 47.2
Neighbor list builds = 0
Dangerous builds = 0
Reading restart file ...
  restart file = 24 Mar 2022, LAMMPS = 24 Mar 2022
  restoring atom style atomic from restart
  triclinic box = (0.00092487531 0.0008009656 -0.00078937289) to (4.6033757 3.9866403 7.2772289) with tilt (-2.3012254 0 0)
WARNING: Triclinic box skew is large (../domain.cpp:228)
  3 by 4 by 4 MPI processor grid
  pair style nep stores no restart info
  5 atoms
  read_restart CPU = 0.100 seconds
Use the NEP4 potential with 2 atom types.
    type 0( Mg with Z = 12).
    type 1( Bi with Z = 83).
    has universal ZBL with inner cutoff 0.75 A and outer cutoff 1.5 A.
    radial cutoff = 6 A.
    angular cutoff = 5 A.
    n_max_radial = 4.
    n_max_angular = 4.
    basis_size_radial = 10.
    basis_size_angular = 10.
    l_max_3body = 4.
    l_max_4body = 2.
    l_max_5body = 0.
    ANN = 30-80-1.
    number of neural network parameters = 5121.
    number of descriptor parameters = 440.
    total number of parameters = 5561.
Changing box ...
WARNING: Triclinic box skew is large (../domain.cpp:228)
  triclinic box = (0.00092487531 0.0008009656 -0.00078937289) to (4.6033757 3.9866403 7.2772216) with tilt (-2.3012254 0 0)
Neighbor list info ...
  update every 1 steps, delay 0 steps, check yes
  max neighbors/atom: 2000, page size: 100000
  master list distance cutoff = 7
  ghost atom cutoff = 7
  1 neighbor lists, perpetual/occasional/extra = 1 0 0
  (1) pair nep, perpetual
      attributes: full, newton on
      pair build: full/nsq
      stencil: none
      bin: none
WARNING: Proc sub-domain size < neighbor skin, could lead to lost atoms (../domain.cpp:974)
Setting up cg style minimization ...
  Unit style    : metal
  Current step  : 100
Per MPI rank memory allocation (min/avg/max) = 4.171 | 4.171 | 4.171 Mbytes
   Step          Temp          PotEng         Press           Pxx            Pyy            Pzz            Pxy            Pxz            Pyz             Lx             Ly             Lz           Volume    
       100   0             -15.622846      0.59389803    -0.32847742     0.78356503     1.3266065     -0.2446682      0.11203337     0.4899469      4.6024508      3.9858393      7.278011       133.51241    
       101   0             -15.622846      0.40801904     0.28637534     0.16962976     0.76805203    -0.014370007   -0.043269055    0.01542053     4.6024508      3.9858393      7.278011       133.51241    
       102   0             -15.622846      0.42044531     0.23458725     0.2532201      0.77352858    -0.021935026   -0.012173741    0.038009663    4.6024508      3.9858393      7.278011       133.51241    
       103   0             -15.622846      0.42170351     0.25394393     0.24093795     0.77022866    -0.0022197878  -0.0053141686   0.0027729371   4.6024508      3.9858393      7.278011       133.51241    
       104   0             -15.622846      0.41641059     0.23925067     0.2414515      0.7685296     -0.0011968321  -0.00035231377  0.0021898107   4.6024508      3.9858393      7.278011       133.51241    
       105   0             -15.622846      0.41880996     0.24244727     0.24006803     0.77391458     0.00017970876 -0.00051833938 -0.00044923425  4.6024508      3.9858393      7.278011       133.51241    
       106   0             -15.622846      0.4183588      0.24188094     0.24196379     0.77123167    -7.9510981e-06  6.0102762e-06  4.7057408e-05  4.6024508      3.9858393      7.278011       133.51241    
       107   0             -15.622846      0.41829317     0.24179147     0.24173237     0.77135567     2.6881828e-05 -5.1536855e-06 -2.182809e-05   4.6024508      3.9858393      7.278011       133.51241    
       108   0             -15.622846      0.41829746     0.24175973     0.24175974     0.77137291     1.648904e-05   2.7191161e-06 -1.8844337e-09  4.6024508      3.9858393      7.278011       133.51241    
       109   0             -15.622846      0.41829746     0.24175973     0.24175974     0.77137291     1.6487558e-05  2.7179757e-06 -1.2253844e-09  4.6024508      3.9858393      7.278011       133.51241    
       110   0             -15.622846      0.41829746     0.24175974     0.24175974     0.77137291     1.6485192e-05  2.7140104e-06 -5.9138966e-10  4.6024508      3.9858393      7.278011       133.51241    
       111   0             -15.622846      0.41829746     0.24175974     0.24175974     0.77137291     1.6484283e-05  2.7139087e-06  4.6166862e-10  4.6024508      3.9858393      7.278011       133.51241    
       112   0             -15.622846      0.41829746     0.24175974     0.24175974     0.77137291     1.6484406e-05  2.7134759e-06  2.409284e-11   4.6024508      3.9858393      7.278011       133.51241    
       113   0             -15.622846      0.41829746     0.24175974     0.24175974     0.77137291     1.6484457e-05  2.7134311e-06  3.1516998e-11  4.6024508      3.9858393      7.278011       133.51241    
       114   0             -15.622846      0.41829746     0.24175974     0.24175974     0.77137291     1.6484416e-05  2.7134395e-06  1.0053188e-11  4.6024508      3.9858393      7.278011       133.51241    
       115   0             -15.622846      0.41829746     0.24175974     0.24175974     0.77137291     1.6484416e-05  2.7134395e-06  1.0053188e-11  4.6024508      3.9858393      7.278011       133.51241    
Loop time of 0.00463232 on 48 procs for 15 steps with 5 atoms

99.6% CPU use with 48 MPI tasks x no OpenMP threads

Minimization stats:
  Stopping criterion = quadratic factors are zero
  Energy initial, next-to-last, final = 
     -15.6228456123852  -15.6228456131099  -15.6228456131099
  Force two-norm initial, final = 9.3216209e-05 3.4985515e-15
  Force max component initial, final = 4.7898868e-05 1.6028845e-15
  Final line search alpha, max atom move = 1 1.6028845e-15
  Iterations, force evaluations = 15 30

MPI task timing breakdown:
Section |  min time  |  avg time  |  max time  |%varavg| %total
---------------------------------------------------------------
Pair    | 3.158e-06  | 0.00016755 | 0.0016386  |   0.0 |  3.62
Neigh   | 0          | 0          | 0          |   0.0 |  0.00
Comm    | 0.0016921  | 0.0029992  | 0.0034351  |   0.8 | 64.75
Output  | 0.00048768 | 0.00050091 | 0.00056651 |   0.0 | 10.81
Modify  | 0          | 0          | 0          |   0.0 |  0.00
Other   |            | 0.0009647  |            |       | 20.82

Nlocal:       0.104167 ave           1 max           0 min
Histogram: 43 0 0 0 0 0 0 0 0 5
Nghost:        159.396 ave         176 max         143 min
Histogram: 12 0 0 6 1 17 0 0 0 12
Neighs:              0 ave           0 max           0 min
Histogram: 48 0 0 0 0 0 0 0 0 0
FullNghs:      4.91667 ave          50 max           0 min
Histogram: 43 0 0 0 0 0 0 0 1 4

Total # of neighbors = 236
Ave neighs/atom = 47.2
Neighbor list builds = 0
Dangerous builds = 0
Reading restart file ...
  restart file = 24 Mar 2022, LAMMPS = 24 Mar 2022
  restoring atom style atomic from restart
  triclinic box = (0.00092487531 0.0008009656 -0.00078937289) to (4.6033757 3.9866403 7.2772289) with tilt (-2.3012254 0 0)
WARNING: Triclinic box skew is large (../domain.cpp:228)
  3 by 4 by 4 MPI processor grid
  pair style nep stores no restart info
  5 atoms
  read_restart CPU = 0.039 seconds
Use the NEP4 potential with 2 atom types.
    type 0( Mg with Z = 12).
    type 1( Bi with Z = 83).
    has universal ZBL with inner cutoff 0.75 A and outer cutoff 1.5 A.
    radial cutoff = 6 A.
    angular cutoff = 5 A.
    n_max_radial = 4.
    n_max_angular = 4.
    basis_size_radial = 10.
    basis_size_angular = 10.
    l_max_3body = 4.
    l_max_4body = 2.
    l_max_5body = 0.
    ANN = 30-80-1.
    number of neural network parameters = 5121.
    number of descriptor parameters = 440.
    total number of parameters = 5561.
Changing box ...
WARNING: Triclinic box skew is large (../domain.cpp:228)
  triclinic box = (0.00092487531 0.0008009656 -0.00078937289) to (4.6033757 3.9866403 7.2772362) with tilt (-2.3012254 0 0)
Neighbor list info ...
  update every 1 steps, delay 0 steps, check yes
  max neighbors/atom: 2000, page size: 100000
  master list distance cutoff = 7
  ghost atom cutoff = 7
  1 neighbor lists, perpetual/occasional/extra = 1 0 0
  (1) pair nep, perpetual
      attributes: full, newton on
      pair build: full/nsq
      stencil: none
      bin: none
WARNING: Proc sub-domain size < neighbor skin, could lead to lost atoms (../domain.cpp:974)
Setting up cg style minimization ...
  Unit style    : metal
  Current step  : 100
Per MPI rank memory allocation (min/avg/max) = 4.171 | 4.171 | 4.171 Mbytes
   Step          Temp          PotEng         Press           Pxx            Pyy            Pzz            Pxy            Pxz            Pyz             Lx             Ly             Lz           Volume    
       100   0             -15.622846     -0.30770004    -0.79673231     0.3153041     -0.44167192    -0.24466638     0.11203215     0.48994836     4.6024508      3.9858393      7.2780256      133.51268    
       101   0             -15.622846     -0.42282658    -0.18631672    -0.30528345    -0.77687958    -0.013952635   -0.043551268    0.014563571    4.6024508      3.9858393      7.2780256      133.51268    
       102   0             -15.622846     -0.41716515    -0.25131085    -0.230839      -0.76934559    -0.022146286   -0.011838008    0.038499202    4.6024508      3.9858393      7.2780256      133.51268    
       103   0             -15.622846     -0.41690028    -0.23472364    -0.24531213    -0.77066507    -0.002201545   -0.0046384222   0.0029206278   4.6024508      3.9858393      7.2780256      133.51268    
       104   0             -15.622846     -0.41960381    -0.24332524    -0.24155314    -0.77393305    -0.00092397155 -0.00025561925  0.0017036217   4.6024508      3.9858393      7.2780256      133.51268    
       105   0             -15.622846     -0.41768711    -0.2408223     -0.24290222    -0.76933681     0.00019972802 -0.00042005091 -0.00046129923  4.6024508      3.9858393      7.2780256      133.51268    
       106   0             -15.622846     -0.4182467     -0.24169313    -0.24162441    -0.77142255     2.5988403e-06  1.0446741e-05  2.8408823e-05  4.6024508      3.9858393      7.2780256      133.51268    
       107   0             -15.622846     -0.41829842    -0.24172757    -0.24177398    -0.77139372     2.4652093e-05 -3.4514682e-06 -1.7155828e-05  4.6024508      3.9858393      7.2780256      133.51268    
       108   0             -15.622846     -0.41829468    -0.24175736    -0.24175735    -0.77136932     1.6492462e-05  2.7239673e-06 -6.8573211e-09  4.6024508      3.9858393      7.2780256      133.51268    
       109   0             -15.622846     -0.41829468    -0.24175735    -0.24175735    -0.77136932     1.6487665e-05  2.7189325e-06 -3.3173629e-09  4.6024508      3.9858393      7.2780256      133.51268    
       110   0             -15.622846     -0.41829468    -0.24175735    -0.24175735    -0.77136932     1.6484663e-05  2.7137428e-06 -1.7449857e-10  4.6024508      3.9858393      7.2780256      133.51268    
       111   0             -15.622846     -0.41829468    -0.24175735    -0.24175735    -0.77136932     1.6484261e-05  2.7135931e-06 -5.5904048e-11  4.6024508      3.9858393      7.2780256      133.51268    
       112   0             -15.622846     -0.41829468    -0.24175735    -0.24175735    -0.77136932     1.6484428e-05  2.7134678e-06  4.2767079e-11  4.6024508      3.9858393      7.2780256      133.51268    
       113   0             -15.622846     -0.41829468    -0.24175735    -0.24175735    -0.77136932     1.6484407e-05  2.7134699e-06  2.2067461e-11  4.6024508      3.9858393      7.2780256      133.51268    
       114   0             -15.622846     -0.41829468    -0.24175735    -0.24175735    -0.77136932     1.6484362e-05  2.7135165e-06  2.942627e-11   4.6024508      3.9858393      7.2780256      133.51268    
       115   0             -15.622846     -0.41829468    -0.24175735    -0.24175735    -0.77136932     1.6484387e-05  2.7135022e-06  1.0500732e-11  4.6024508      3.9858393      7.2780256      133.51268    
       116   0             -15.622846     -0.41829468    -0.24175735    -0.24175735    -0.77136932     1.6484386e-05  2.713502e-06   1.0584e-11     4.6024508      3.9858393      7.2780256      133.51268    
       117   0             -15.622846     -0.41829468    -0.24175735    -0.24175735    -0.77136932     1.6484386e-05  2.713502e-06   1.0584e-11     4.6024508      3.9858393      7.2780256      133.51268    
Loop time of 0.00542039 on 48 procs for 17 steps with 5 atoms

99.5% CPU use with 48 MPI tasks x no OpenMP threads

Minimization stats:
  Stopping criterion = quadratic factors are zero
  Energy initial, next-to-last, final = 
     -15.6228456124589  -15.6228456131099  -15.6228456131099
  Force two-norm initial, final = 8.8172288e-05 4.3740742e-15
  Force max component initial, final = 4.789863e-05 1.894318e-15
  Final line search alpha, max atom move = 1 1.894318e-15
  Iterations, force evaluations = 17 34

MPI task timing breakdown:
Section |  min time  |  avg time  |  max time  |%varavg| %total
---------------------------------------------------------------
Pair    | 3.24e-06   | 0.00019284 | 0.0021599  |   0.0 |  3.56
Neigh   | 0          | 0          | 0          |   0.0 |  0.00
Comm    | 0.0016912  | 0.0033016  | 0.0038411  |   0.9 | 60.91
Output  | 0.00053019 | 0.00054573 | 0.0009019  |   0.0 | 10.07
Modify  | 0          | 0          | 0          |   0.0 |  0.00
Other   |            | 0.00138    |            |       | 25.46

Nlocal:       0.104167 ave           1 max           0 min
Histogram: 43 0 0 0 0 0 0 0 0 5
Nghost:        159.396 ave         176 max         143 min
Histogram: 12 0 0 6 1 17 0 0 0 12
Neighs:              0 ave           0 max           0 min
Histogram: 48 0 0 0 0 0 0 0 0 0
FullNghs:      4.91667 ave          50 max           0 min
Histogram: 43 0 0 0 0 0 0 0 1 4

Total # of neighbors = 236
Ave neighs/atom = 47.2
Neighbor list builds = 0
Dangerous builds = 0
Reading restart file ...
  restart file = 24 Mar 2022, LAMMPS = 24 Mar 2022
  restoring atom style atomic from restart
  triclinic box = (0.00092487531 0.0008009656 -0.00078937289) to (4.6033757 3.9866403 7.2772289) with tilt (-2.3012254 0 0)
WARNING: Triclinic box skew is large (../domain.cpp:228)
  3 by 4 by 4 MPI processor grid
  pair style nep stores no restart info
  5 atoms
  read_restart CPU = 0.003 seconds
Use the NEP4 potential with 2 atom types.
    type 0( Mg with Z = 12).
    type 1( Bi with Z = 83).
    has universal ZBL with inner cutoff 0.75 A and outer cutoff 1.5 A.
    radial cutoff = 6 A.
    angular cutoff = 5 A.
    n_max_radial = 4.
    n_max_angular = 4.
    basis_size_radial = 10.
    basis_size_angular = 10.
    l_max_3body = 4.
    l_max_4body = 2.
    l_max_5body = 0.
    ANN = 30-80-1.
    number of neural network parameters = 5121.
    number of descriptor parameters = 440.
    total number of parameters = 5561.
Changing box ...
WARNING: Triclinic box skew is large (../domain.cpp:228)
  triclinic box = (0.00092487531 0.0008009656 -0.00078937289) to (4.6033757 3.9866403 7.2772289) with tilt (-2.3012254 0 -7.2780183e-06)
Neighbor list info ...
  update every 1 steps, delay 0 steps, check yes
  max neighbors/atom: 2000, page size: 100000
  master list distance cutoff = 7
  ghost atom cutoff = 7
  1 neighbor lists, perpetual/occasional/extra = 1 0 0
  (1) pair nep, perpetual
      attributes: full, newton on
      pair build: full/nsq
      stencil: none
      bin: none
WARNING: Proc sub-domain size < neighbor skin, could lead to lost atoms (../domain.cpp:974)
Setting up cg style minimization ...
  Unit style    : metal
  Current step  : 100
Per MPI rank memory allocation (min/avg/max) = 4.171 | 4.171 | 4.171 Mbytes
   Step          Temp          PotEng         Press           Pxx            Pyy            Pzz            Pxy            Pxz            Pyz             Lx             Ly             Lz           Volume    
       100   0             -15.622846      0.1430977     -0.60324955     0.59007905     0.44246359    -0.24466705     0.11203211     0.72717818     4.6024508      3.9858393      7.2780183      133.51255    
       101   0             -15.622846     -0.007148342    0.085660758   -0.10344779    -0.0036579955  -0.014604682   -0.043111154    0.1918307      4.6024508      3.9858393      7.2780183      133.51255    
       102   0             -15.622846      0.0015589307   0.018163003   -0.014463205    0.00097699415 -0.021629857   -0.011212955    0.21481288     4.6024508      3.9858393      7.2780183      133.51255    
       103   0             -15.622846      0.0026026971   0.037267232   -0.029317071   -0.00014207007 -0.0018537354  -0.0043373339   0.17367401     4.6024508      3.9858393      7.2780183      133.51255    
       104   0             -15.622846     -0.0017628414   0.024858227   -0.027314411   -0.0028323397  -0.00092101134 -0.00021201814  0.17267023     4.6024508      3.9858393      7.2780183      133.51255    
       105   0             -15.622846      0.00054104683  0.027861091   -0.028558262    0.0023203121   0.00017033224 -0.00039136322  0.17025526     4.6024508      3.9858393      7.2780183      133.51255    
       106   0             -15.622846      6.5716823e-05  0.027251228   -0.026934668   -0.00011941023 -6.7515187e-07  8.0933956e-06  0.17072644     4.6024508      3.9858393      7.2780183      133.51255    
       107   0             -15.622846     -4.4277033e-06  0.02716305    -0.027154929   -2.1404027e-05  2.4911563e-05 -3.6460913e-06  0.17066766     4.6024508      3.9858393      7.2780183      133.51255    
       108   0             -15.622846      5.4130832e-07  0.027132408   -0.027131406    6.2159884e-07  1.649395e-05   2.7253749e-06  0.17068766     4.6024508      3.9858393      7.2780183      133.51255    
       109   0             -15.622846      5.4140785e-07  0.027132408   -0.027131406    6.2155821e-07  1.6490905e-05  2.7227386e-06  0.17068766     4.6024508      3.9858393      7.2780183      133.51255    
       110   0             -15.622846      5.4138804e-07  0.027132413   -0.02713141     6.2121181e-07  1.6485115e-05  2.7137191e-06  0.17068766     4.6024508      3.9858393      7.2780183      133.51255    
       111   0             -15.622846      5.415881e-07   0.027132411   -0.027131408    6.2194723e-07  1.6483838e-05  2.7139858e-06  0.17068766     4.6024508      3.9858393      7.2780183      133.51255    
       112   0             -15.622846      5.4135334e-07  0.027132412   -0.02713141     6.2144096e-07  1.6484345e-05  2.7134765e-06  0.17068766     4.6024508      3.9858393      7.2780183      133.51255    
       113   0             -15.622846      5.4143333e-07  0.027132412   -0.027131409    6.2150958e-07  1.6484385e-05  2.7134553e-06  0.17068766     4.6024508      3.9858393      7.2780183      133.51255    
       114   0             -15.622846      5.4143333e-07  0.027132412   -0.027131409    6.2150958e-07  1.6484385e-05  2.7134553e-06  0.17068766     4.6024508      3.9858393      7.2780183      133.51255    
Loop time of 0.00457918 on 48 procs for 14 steps with 5 atoms

96.9% CPU use with 48 MPI tasks x no OpenMP threads

Minimization stats:
  Stopping criterion = quadratic factors are zero
  Energy initial, next-to-last, final = 
     -15.6228456124082   -15.622845613135   -15.622845613135
  Force two-norm initial, final = 9.3230594e-05 4.1473984e-15
  Force max component initial, final = 5.114078e-05 2.8518854e-15
  Final line search alpha, max atom move = 1 2.8518854e-15
  Iterations, force evaluations = 14 28

MPI task timing breakdown:
Section |  min time  |  avg time  |  max time  |%varavg| %total
---------------------------------------------------------------
Pair    | 2.831e-06  | 0.00016119 | 0.0017891  |   0.0 |  3.52
Neigh   | 0          | 0          | 0          |   0.0 |  0.00
Comm    | 0.0016234  | 0.0029466  | 0.003402   |   0.8 | 64.35
Output  | 0.00048025 | 0.0004895  | 0.00054693 |   0.0 | 10.69
Modify  | 0          | 0          | 0          |   0.0 |  0.00
Other   |            | 0.0009819  |            |       | 21.44

Nlocal:       0.104167 ave           1 max           0 min
Histogram: 43 0 0 0 0 0 0 0 0 5
Nghost:        159.396 ave         176 max         143 min
Histogram: 12 0 0 6 1 17 0 0 0 12
Neighs:              0 ave           0 max           0 min
Histogram: 48 0 0 0 0 0 0 0 0 0
FullNghs:      4.91667 ave          50 max           0 min
Histogram: 43 0 0 0 0 0 0 0 1 4

Total # of neighbors = 236
Ave neighs/atom = 47.2
Neighbor list builds = 0
Dangerous builds = 0
Reading restart file ...
  restart file = 24 Mar 2022, LAMMPS = 24 Mar 2022
  restoring atom style atomic from restart
  triclinic box = (0.00092487531 0.0008009656 -0.00078937289) to (4.6033757 3.9866403 7.2772289) with tilt (-2.3012254 0 0)
WARNING: Triclinic box skew is large (../domain.cpp:228)
  3 by 4 by 4 MPI processor grid
  pair style nep stores no restart info
  5 atoms
  read_restart CPU = 0.111 seconds
Use the NEP4 potential with 2 atom types.
    type 0( Mg with Z = 12).
    type 1( Bi with Z = 83).
    has universal ZBL with inner cutoff 0.75 A and outer cutoff 1.5 A.
    radial cutoff = 6 A.
    angular cutoff = 5 A.
    n_max_radial = 4.
    n_max_angular = 4.
    basis_size_radial = 10.
    basis_size_angular = 10.
    l_max_3body = 4.
    l_max_4body = 2.
    l_max_5body = 0.
    ANN = 30-80-1.
    number of neural network parameters = 5121.
    number of descriptor parameters = 440.
    total number of parameters = 5561.
Changing box ...
WARNING: Triclinic box skew is large (../domain.cpp:228)
  triclinic box = (0.00092487531 0.0008009656 -0.00078937289) to (4.6033757 3.9866403 7.2772289) with tilt (-2.3012254 0 7.2780183e-06)
Neighbor list info ...
  update every 1 steps, delay 0 steps, check yes
  max neighbors/atom: 2000, page size: 100000
  master list distance cutoff = 7
  ghost atom cutoff = 7
  1 neighbor lists, perpetual/occasional/extra = 1 0 0
  (1) pair nep, perpetual
      attributes: full, newton on
      pair build: full/nsq
      stencil: none
      bin: none
WARNING: Proc sub-domain size < neighbor skin, could lead to lost atoms (../domain.cpp:974)
Setting up cg style minimization ...
  Unit style    : metal
  Current step  : 100
Per MPI rank memory allocation (min/avg/max) = 4.171 | 4.171 | 4.171 Mbytes
   Step          Temp          PotEng         Press           Pxx            Pyy            Pzz            Pxy            Pxz            Pyz             Lx             Ly             Lz           Volume    
       100   0             -15.622846      0.14309793    -0.52196068     0.50878944     0.44246505    -0.24466753     0.11203342     0.2527172      4.6024508      3.9858393      7.2780183      133.51255    
       101   0             -15.622846     -0.0077374506   0.014146071   -0.031947853   -0.0054105699  -0.013699447   -0.043721654   -0.16164401     4.6024508      3.9858393      7.2780183      133.51255    
       102   0             -15.622846      0.0017691762  -0.035271409    0.037446285    0.0031326522  -0.022408794   -0.01264823    -0.13859985     4.6024508      3.9858393      7.2780183      133.51255    
       103   0             -15.622846      0.0023074257  -0.018317779    0.02552892    -0.00028886341 -0.0025578041  -0.0054882409  -0.1681939      4.6024508      3.9858393      7.2780183      133.51255    
       104   0             -15.622846     -0.0016450883  -0.029250584    0.026923846   -0.0026085272  -0.0012184839  -0.0004078616  -0.16883396     4.6024508      3.9858393      7.2780183      133.51255    
       105   0             -15.622846      0.00054119541 -0.026395981    0.025750931    0.0022686363   0.00018397817 -0.00053919106 -0.17111622     4.6024508      3.9858393      7.2780183      133.51255    
       106   0             -15.622846      6.4081616e-05 -0.027014884    0.027330398   -0.00012326905 -7.5437732e-06  8.9527041e-06 -0.17064737     4.6024508      3.9858393      7.2780183      133.51255    
       107   0             -15.622846     -3.7563654e-06 -0.027099617    0.027106775   -1.8426724e-05  2.807109e-05  -6.0490238e-06 -0.17070891     4.6024508      3.9858393      7.2780183      133.51255    
       108   0             -15.622846      5.413615e-07  -0.027131351    0.027132354    6.2150092e-07  1.6489815e-05  2.7204085e-06 -0.17068773     4.6024508      3.9858393      7.2780183      133.51255    
       109   0             -15.622846      5.414431e-07  -0.027131351    0.027132353    6.2163148e-07  1.6488228e-05  2.7188515e-06 -0.17068773     4.6024508      3.9858393      7.2780183      133.51255    
       110   0             -15.622846      5.4148096e-07 -0.027131348    0.027132351    6.2138634e-07  1.6485011e-05  2.7137377e-06 -0.17068772     4.6024508      3.9858393      7.2780183      133.51255    
       111   0             -15.622846      5.414718e-07  -0.027131348    0.027132351    6.2162815e-07  1.6484043e-05  2.7138602e-06 -0.17068772     4.6024508      3.9858393      7.2780183      133.51255    
       112   0             -15.622846      5.4134413e-07 -0.027131348    0.02713235     6.2145495e-07  1.6484447e-05  2.7134656e-06 -0.17068772     4.6024508      3.9858393      7.2780183      133.51255    
       113   0             -15.622846      5.4138215e-07 -0.027131348    0.027132351    6.2143164e-07  1.6484451e-05  2.7134314e-06 -0.17068772     4.6024508      3.9858393      7.2780183      133.51255    
       114   0             -15.622846      5.4137149e-07 -0.027131348    0.02713235     6.2142031e-07  1.6484432e-05  2.7134482e-06 -0.17068772     4.6024508      3.9858393      7.2780183      133.51255    
       115   0             -15.622846      5.4141746e-07 -0.027131348    0.027132351    6.2144363e-07  1.6484414e-05  2.7134609e-06 -0.17068772     4.6024508      3.9858393      7.2780183      133.51255    
       116   0             -15.622846      5.4140708e-07 -0.027131348    0.027132351    6.214343e-07   1.6484412e-05  2.7134486e-06 -0.17068772     4.6024508      3.9858393      7.2780183      133.51255    
       117   0             -15.622846      5.4140708e-07 -0.027131348    0.027132351    6.214343e-07   1.6484412e-05  2.7134486e-06 -0.17068772     4.6024508      3.9858393      7.2780183      133.51255    
Loop time of 0.00542291 on 48 procs for 17 steps with 5 atoms

99.4% CPU use with 48 MPI tasks x no OpenMP threads

Minimization stats:
  Stopping criterion = quadratic factors are zero
  Energy initial, next-to-last, final = 
     -15.6228456124898   -15.622845613135   -15.622845613135
  Force two-norm initial, final = 8.7862568e-05 4.1307288e-15
  Force max component initial, final = 4.4656728e-05 1.6930901e-15
  Final line search alpha, max atom move = 1 1.6930901e-15
  Iterations, force evaluations = 17 34

MPI task timing breakdown:
Section |  min time  |  avg time  |  max time  |%varavg| %total
---------------------------------------------------------------
Pair    | 3.51e-06   | 0.00019147 | 0.0019765  |   0.0 |  3.53
Neigh   | 0          | 0          | 0          |   0.0 |  0.00
Comm    | 0.0020787  | 0.0035143  | 0.0040442  |   0.8 | 64.80
Output  | 0.00058022 | 0.00058841 | 0.00061372 |   0.0 | 10.85
Modify  | 0          | 0          | 0          |   0.0 |  0.00
Other   |            | 0.001129   |            |       | 20.81

Nlocal:       0.104167 ave           1 max           0 min
Histogram: 43 0 0 0 0 0 0 0 0 5
Nghost:        159.396 ave         176 max         143 min
Histogram: 12 0 0 6 1 17 0 0 0 12
Neighs:              0 ave           0 max           0 min
Histogram: 48 0 0 0 0 0 0 0 0 0
FullNghs:      4.91667 ave          50 max           0 min
Histogram: 43 0 0 0 0 0 0 0 1 4

Total # of neighbors = 236
Ave neighs/atom = 47.2
Neighbor list builds = 0
Dangerous builds = 0
Reading restart file ...
  restart file = 24 Mar 2022, LAMMPS = 24 Mar 2022
  restoring atom style atomic from restart
  triclinic box = (0.00092487531 0.0008009656 -0.00078937289) to (4.6033757 3.9866403 7.2772289) with tilt (-2.3012254 0 0)
WARNING: Triclinic box skew is large (../domain.cpp:228)
  3 by 4 by 4 MPI processor grid
  pair style nep stores no restart info
  5 atoms
  read_restart CPU = 0.101 seconds
Use the NEP4 potential with 2 atom types.
    type 0( Mg with Z = 12).
    type 1( Bi with Z = 83).
    has universal ZBL with inner cutoff 0.75 A and outer cutoff 1.5 A.
    radial cutoff = 6 A.
    angular cutoff = 5 A.
    n_max_radial = 4.
    n_max_angular = 4.
    basis_size_radial = 10.
    basis_size_angular = 10.
    l_max_3body = 4.
    l_max_4body = 2.
    l_max_5body = 0.
    ANN = 30-80-1.
    number of neural network parameters = 5121.
    number of descriptor parameters = 440.
    total number of parameters = 5561.
Changing box ...
WARNING: Triclinic box skew is large (../domain.cpp:228)
  triclinic box = (0.00092487531 0.0008009656 -0.00078937289) to (4.6033757 3.9866403 7.2772289) with tilt (-2.3012254 -7.2780183e-06 0)
Neighbor list info ...
  update every 1 steps, delay 0 steps, check yes
  max neighbors/atom: 2000, page size: 100000
  master list distance cutoff = 7
  ghost atom cutoff = 7
  1 neighbor lists, perpetual/occasional/extra = 1 0 0
  (1) pair nep, perpetual
      attributes: full, newton on
      pair build: full/nsq
      stencil: none
      bin: none
WARNING: Proc sub-domain size < neighbor skin, could lead to lost atoms (../domain.cpp:974)
Setting up cg style minimization ...
  Unit style    : metal
  Current step  : 100
Per MPI rank memory allocation (min/avg/max) = 4.171 | 4.171 | 4.171 Mbytes
   Step          Temp          PotEng         Press           Pxx            Pyy            Pzz            Pxy            Pxz            Pyz             Lx             Ly             Lz           Volume    
       100   0             -15.622846      0.14309842    -0.56260435     0.54943468     0.44246493    -0.28531154     0.34925982     0.48994691     4.6024508      3.9858393      7.2780183      133.51255    
       101   0             -15.622846     -0.0071151505   0.048722962   -0.066506892   -0.0035615209   0.022135266    0.13286319     0.016006323    4.6024508      3.9858393      7.2780183      133.51255    
       102   0             -15.622846      0.0011952311  -0.0054678441   0.0074008938   0.0016526435   0.0059903911   0.16367602     0.037018856    4.6024508      3.9858393      7.2780183      133.51255    
       103   0             -15.622846      0.002378934    0.0096045275  -0.0023318472  -0.00013587833  0.025569942    0.16622596     0.0035477783   4.6024508      3.9858393      7.2780183      133.51255    
       104   0             -15.622846     -0.0016794911  -0.0019692197  -0.00035768785 -0.0027115658   0.025958885    0.17056512     0.0020304646   4.6024508      3.9858393      7.2780183      133.51255    
       105   0             -15.622846      0.00052875619  0.00072388917 -0.0013981624   0.0022605418   0.027407684    0.17017739    -0.00033581011  4.6024508      3.9858393      7.2780183      133.51255    
       106   0             -15.622846      6.5233634e-05  0.00012136948  0.00019462382 -0.0001202924   0.027123792    0.17069992     3.96865e-05    4.6024508      3.9858393      7.2780183      133.51255    
       107   0             -15.622846     -4.2455928e-06  3.0461743e-05 -2.259142e-05  -2.0607101e-05  0.027161051    0.17068085    -1.9549935e-05  4.6024508      3.9858393      7.2780183      133.51255    
       108   0             -15.622846      5.4121545e-07  4.6655885e-07  5.3572714e-07  6.2136036e-07  0.02714837     0.17069041     2.4876381e-08  4.6024508      3.9858393      7.2780183      133.51255    
       109   0             -15.622846      5.4139786e-07  4.6757339e-07  5.3498938e-07  6.2163082e-07  0.027148368    0.17069041     2.6608951e-08  4.6024508      3.9858393      7.2780183      133.51255    
       110   0             -15.622846      5.4143461e-07  4.7043331e-07  5.3240824e-07  6.2146228e-07  0.027148365    0.17069041     2.9853825e-08  4.6024508      3.9858393      7.2780183      133.51255    
       111   0             -15.622846      5.4133053e-07  4.7002447e-07  5.3244288e-07  6.2152423e-07  0.027148364    0.17069041     3.0599681e-08  4.6024508      3.9858393      7.2780183      133.51255    
       112   0             -15.622846      5.4141196e-07  4.7045796e-07  5.322104e-07   6.2156753e-07  0.027148364    0.17069041     3.0373062e-08  4.6024508      3.9858393      7.2780183      133.51255    
       113   0             -15.622846      5.413051e-07   4.7049909e-07  5.3200389e-07  6.2141232e-07  0.027148364    0.17069041     3.0307423e-08  4.6024508      3.9858393      7.2780183      133.51255    
       114   0             -15.622846      5.4136666e-07  4.7047728e-07  5.3217376e-07  6.2144896e-07  0.027148364    0.17069041     3.0350182e-08  4.6024508      3.9858393      7.2780183      133.51255    
       115   0             -15.622846      5.4136666e-07  4.7047728e-07  5.3217376e-07  6.2144896e-07  0.027148364    0.17069041     3.0350182e-08  4.6024508      3.9858393      7.2780183      133.51255    
Loop time of 0.00479014 on 48 procs for 15 steps with 5 atoms

99.8% CPU use with 48 MPI tasks x no OpenMP threads

Minimization stats:
  Stopping criterion = quadratic factors are zero
  Energy initial, next-to-last, final = 
     -15.6228456124397   -15.622845613135   -15.622845613135
  Force two-norm initial, final = 9.1460091e-05 3.5039697e-15
  Force max component initial, final = 4.7898695e-05 1.8596236e-15
  Final line search alpha, max atom move = 1 1.8596236e-15
  Iterations, force evaluations = 15 30

MPI task timing breakdown:
Section |  min time  |  avg time  |  max time  |%varavg| %total
---------------------------------------------------------------
Pair    | 3.065e-06  | 0.00017323 | 0.0018385  |   0.0 |  3.62
Neigh   | 0          | 0          | 0          |   0.0 |  0.00
Comm    | 0.0017337  | 0.0030871  | 0.0035629  |   0.8 | 64.45
Output  | 0.00053181 | 0.00054018 | 0.0005993  |   0.0 | 11.28
Modify  | 0          | 0          | 0          |   0.0 |  0.00
Other   |            | 0.0009897  |            |       | 20.66

Nlocal:       0.104167 ave           1 max           0 min
Histogram: 43 0 0 0 0 0 0 0 0 5
Nghost:        159.396 ave         176 max         143 min
Histogram: 12 0 0 6 1 17 0 0 0 12
Neighs:              0 ave           0 max           0 min
Histogram: 48 0 0 0 0 0 0 0 0 0
FullNghs:      4.91667 ave          50 max           0 min
Histogram: 43 0 0 0 0 0 0 0 1 4

Total # of neighbors = 236
Ave neighs/atom = 47.2
Neighbor list builds = 0
Dangerous builds = 0
Reading restart file ...
  restart file = 24 Mar 2022, LAMMPS = 24 Mar 2022
  restoring atom style atomic from restart
  triclinic box = (0.00092487531 0.0008009656 -0.00078937289) to (4.6033757 3.9866403 7.2772289) with tilt (-2.3012254 0 0)
WARNING: Triclinic box skew is large (../domain.cpp:228)
  3 by 4 by 4 MPI processor grid
  pair style nep stores no restart info
  5 atoms
  read_restart CPU = 0.102 seconds
Use the NEP4 potential with 2 atom types.
    type 0( Mg with Z = 12).
    type 1( Bi with Z = 83).
    has universal ZBL with inner cutoff 0.75 A and outer cutoff 1.5 A.
    radial cutoff = 6 A.
    angular cutoff = 5 A.
    n_max_radial = 4.
    n_max_angular = 4.
    basis_size_radial = 10.
    basis_size_angular = 10.
    l_max_3body = 4.
    l_max_4body = 2.
    l_max_5body = 0.
    ANN = 30-80-1.
    number of neural network parameters = 5121.
    number of descriptor parameters = 440.
    total number of parameters = 5561.
Changing box ...
WARNING: Triclinic box skew is large (../domain.cpp:228)
  triclinic box = (0.00092487531 0.0008009656 -0.00078937289) to (4.6033757 3.9866403 7.2772289) with tilt (-2.3012254 7.2780183e-06 0)
Neighbor list info ...
  update every 1 steps, delay 0 steps, check yes
  max neighbors/atom: 2000, page size: 100000
  master list distance cutoff = 7
  ghost atom cutoff = 7
  1 neighbor lists, perpetual/occasional/extra = 1 0 0
  (1) pair nep, perpetual
      attributes: full, newton on
      pair build: full/nsq
      stencil: none
      bin: none
WARNING: Proc sub-domain size < neighbor skin, could lead to lost atoms (../domain.cpp:974)
Setting up cg style minimization ...
  Unit style    : metal
  Current step  : 100
Per MPI rank memory allocation (min/avg/max) = 4.171 | 4.171 | 4.171 Mbytes
   Step          Temp          PotEng         Press           Pxx            Pyy            Pzz            Pxy            Pxz            Pyz             Lx             Ly             Lz           Volume    
       100   0             -15.622846      0.14309721    -0.56260602     0.54943395     0.44246371    -0.20402303    -0.12519429     0.48994822     4.6024508      3.9858393      7.2780183      133.51255    
       101   0             -15.622846     -0.0077478306   0.051294974   -0.069099157   -0.0054393089  -0.050800134   -0.21941458     0.014012029    4.6024508      3.9858393      7.2780183      133.51255    
       102   0             -15.622846      0.002178292   -0.011562169    0.015520035    0.0025770103  -0.049082832   -0.18765275     0.039590156    4.6024508      3.9858393      7.2780183      133.51255    
       103   0             -15.622846      0.0025362967   0.0095442401  -0.0016414679  -0.00029388208 -0.029852259   -0.17575859     0.0021395724   4.6024508      3.9858393      7.2780183      133.51255    
       104   0             -15.622846     -0.0017328995  -0.0024002894  -5.8441115e-05 -0.0027399678  -0.02802317    -0.1711403      0.0018729978   4.6024508      3.9858393      7.2780183      133.51255    
       105   0             -15.622846      0.00055185041  0.00075871755 -0.0014307499   0.0023275836  -0.027058806   -0.17107068    -0.00050987352  4.6024508      3.9858393      7.2780183      133.51255    
       106   0             -15.622846      6.4766355e-05  0.00011518178  0.00020099321 -0.00012187592 -0.027130404   -0.17068304     4.0110209e-05  4.6024508      3.9858393      7.2780183      133.51255    
       107   0             -15.622846     -4.0242149e-06  3.2954666e-05 -2.5417956e-05 -1.9609355e-05 -0.027108795   -0.17069       -2.159962e-05   4.6024508      3.9858393      7.2780183      133.51255    
       108   0             -15.622846      5.4151022e-07  4.6639781e-07  5.3614964e-07  6.2198321e-07 -0.027115387   -0.17068497     2.4043508e-08  4.6024508      3.9858393      7.2780183      133.51255    
       109   0             -15.622846      5.4142939e-07  4.6705329e-07  5.3563471e-07  6.2160017e-07 -0.02711539    -0.17068497     2.5933182e-08  4.6024508      3.9858393      7.2780183      133.51255    
       110   0             -15.622846      5.4161119e-07  4.711759e-07   5.3207683e-07  6.2158085e-07 -0.027115395   -0.17068498     2.9501141e-08  4.6024508      3.9858393      7.2780183      133.51255    
       111   0             -15.622846      5.414919e-07   4.6954234e-07  5.3336716e-07  6.215662e-07  -0.027115396   -0.17068498     3.1089778e-08  4.6024508      3.9858393      7.2780183      133.51255    
       112   0             -15.622846      5.4147569e-07  4.7067512e-07  5.3221173e-07  6.2154022e-07 -0.027115396   -0.17068498     3.0335896e-08  4.6024508      3.9858393      7.2780183      133.51255    
       113   0             -15.622846      5.4156651e-07  4.7074573e-07  5.3234629e-07  6.216075e-07  -0.027115396   -0.17068498     3.0372058e-08  4.6024508      3.9858393      7.2780183      133.51255    
       114   0             -15.622846      5.4150411e-07  4.707056e-07   5.322885e-07   6.2151824e-07 -0.027115396   -0.17068498     3.0356705e-08  4.6024508      3.9858393      7.2780183      133.51255    
       115   0             -15.622846      5.4151283e-07  4.7071642e-07  5.3224653e-07  6.2157553e-07 -0.027115396   -0.17068498     3.033295e-08   4.6024508      3.9858393      7.2780183      133.51255    
       116   0             -15.622846      5.4148368e-07  4.7067113e-07  5.3222239e-07  6.2155754e-07 -0.027115396   -0.17068498     3.034442e-08   4.6024508      3.9858393      7.2780183      133.51255    
       117   0             -15.622846      5.4151671e-07  4.7075689e-07  5.32293e-07    6.2150025e-07 -0.027115396   -0.17068498     3.0353861e-08  4.6024508      3.9858393      7.2780183      133.51255    
       118   0             -15.622846      5.4151655e-07  4.7075706e-07  5.3229233e-07  6.2150025e-07 -0.027115396   -0.17068498     3.0354027e-08  4.6024508      3.9858393      7.2780183      133.51255    
       119   0             -15.622846      5.415886e-07   4.7078687e-07  5.3234546e-07  6.2163348e-07 -0.027115396   -0.17068498     3.0365423e-08  4.6024508      3.9858393      7.2780183      133.51255    
       120   0             -15.622846      5.4159343e-07  4.7079486e-07  5.3235129e-07  6.2163415e-07 -0.027115396   -0.17068498     3.0366932e-08  4.6024508      3.9858393      7.2780183      133.51255    
       121   0             -15.622846      5.4148457e-07  4.706618e-07   5.32285e-07    6.2150691e-07 -0.027115396   -0.17068498     3.037979e-08   4.6024508      3.9858393      7.2780183      133.51255    
       122   0             -15.622846      5.4148524e-07  4.706623e-07   5.3228517e-07  6.2150824e-07 -0.027115396   -0.17068498     3.0379915e-08  4.6024508      3.9858393      7.2780183      133.51255    
       123   0             -15.622846      5.415065e-07   4.7073391e-07  5.32288e-07    6.2149759e-07 -0.027115396   -0.17068498     3.0366601e-08  4.6024508      3.9858393      7.2780183      133.51255    
       124   0             -15.622846      5.4145398e-07  4.7071176e-07  5.3220057e-07  6.2144962e-07 -0.027115396   -0.17068498     3.0330598e-08  4.6024508      3.9858393      7.2780183      133.51255    
       125   0             -15.622846      5.4147513e-07  4.7068861e-07  5.3218525e-07  6.2155154e-07 -0.027115396   -0.17068498     3.0344743e-08  4.6024508      3.9858393      7.2780183      133.51255    
       126   0             -15.622846      5.4155002e-07  4.7066846e-07  5.3231215e-07  6.2166945e-07 -0.027115396   -0.17068498     3.0393165e-08  4.6024508      3.9858393      7.2780183      133.51255    
       127   0             -15.622846      5.415498e-07   4.7071059e-07  5.323293e-07   6.216095e-07  -0.027115396   -0.17068498     3.0382933e-08  4.6024508      3.9858393      7.2780183      133.51255    
       128   0             -15.622846      5.4151494e-07  4.7071542e-07  5.3232181e-07  6.2150758e-07 -0.027115396   -0.17068498     3.0382181e-08  4.6024508      3.9858393      7.2780183      133.51255    
       129   0             -15.622846      5.4147086e-07  4.7070826e-07  5.3222738e-07  6.2147694e-07 -0.027115396   -0.17068498     3.0343565e-08  4.6024508      3.9858393      7.2780183      133.51255    
       130   0             -15.622846      5.4147086e-07  4.7070826e-07  5.3222738e-07  6.2147694e-07 -0.027115396   -0.17068498     3.0343565e-08  4.6024508      3.9858393      7.2780183      133.51255    
Loop time of 0.00895809 on 48 procs for 30 steps with 5 atoms

99.6% CPU use with 48 MPI tasks x no OpenMP threads

Minimization stats:
  Stopping criterion = quadratic factors are zero
  Energy initial, next-to-last, final = 
     -15.6228456124583   -15.622845613135   -15.622845613135
  Force two-norm initial, final = 8.9704054e-05 3.6264601e-15
  Force max component initial, final = 4.7898793e-05 1.7069679e-15
  Final line search alpha, max atom move = 1 1.7069679e-15
  Iterations, force evaluations = 30 60

MPI task timing breakdown:
Section |  min time  |  avg time  |  max time  |%varavg| %total
---------------------------------------------------------------
Pair    | 5.773e-06  | 0.00033159 | 0.0033163  |   0.0 |  3.70
Neigh   | 0          | 0          | 0          |   0.0 |  0.00
Comm    | 0.003428   | 0.0058106  | 0.0067544  |   1.1 | 64.86
Output  | 0.00099255 | 0.0010067  | 0.0010841  |   0.0 | 11.24
Modify  | 0          | 0          | 0          |   0.0 |  0.00
Other   |            | 0.001809   |            |       | 20.20

Nlocal:       0.104167 ave           1 max           0 min
Histogram: 43 0 0 0 0 0 0 0 0 5
Nghost:        159.396 ave         176 max         143 min
Histogram: 12 0 0 6 1 17 0 0 0 12
Neighs:              0 ave           0 max           0 min
Histogram: 48 0 0 0 0 0 0 0 0 0
FullNghs:      4.91667 ave          50 max           0 min
Histogram: 43 0 0 0 0 0 0 0 1 4

Total # of neighbors = 236
Ave neighs/atom = 47.2
Neighbor list builds = 0
Dangerous builds = 0
Reading restart file ...
  restart file = 24 Mar 2022, LAMMPS = 24 Mar 2022
  restoring atom style atomic from restart
  triclinic box = (0.00092487531 0.0008009656 -0.00078937289) to (4.6033757 3.9866403 7.2772289) with tilt (-2.3012254 0 0)
WARNING: Triclinic box skew is large (../domain.cpp:228)
  3 by 4 by 4 MPI processor grid
  pair style nep stores no restart info
  5 atoms
  read_restart CPU = 0.034 seconds
Use the NEP4 potential with 2 atom types.
    type 0( Mg with Z = 12).
    type 1( Bi with Z = 83).
    has universal ZBL with inner cutoff 0.75 A and outer cutoff 1.5 A.
    radial cutoff = 6 A.
    angular cutoff = 5 A.
    n_max_radial = 4.
    n_max_angular = 4.
    basis_size_radial = 10.
    basis_size_angular = 10.
    l_max_3body = 4.
    l_max_4body = 2.
    l_max_5body = 0.
    ANN = 30-80-1.
    number of neural network parameters = 5121.
    number of descriptor parameters = 440.
    total number of parameters = 5561.
Changing box ...
WARNING: Triclinic box skew is large (../domain.cpp:228)
  triclinic box = (0.00092487531 0.0008009656 -0.00078937289) to (4.6033757 3.9866403 7.2772289) with tilt (-2.3012294 0 0)
Neighbor list info ...
  update every 1 steps, delay 0 steps, check yes
  max neighbors/atom: 2000, page size: 100000
  master list distance cutoff = 7
  ghost atom cutoff = 7
  1 neighbor lists, perpetual/occasional/extra = 1 0 0
  (1) pair nep, perpetual
      attributes: full, newton on
      pair build: full/nsq
      stencil: none
      bin: none
WARNING: Proc sub-domain size < neighbor skin, could lead to lost atoms (../domain.cpp:974)
Setting up cg style minimization ...
  Unit style    : metal
  Current step  : 100
Per MPI rank memory allocation (min/avg/max) = 4.171 | 4.171 | 4.171 Mbytes
   Step          Temp          PotEng         Press           Pxx            Pyy            Pzz            Pxy            Pxz            Pyz             Lx             Ly             Lz           Volume    
       100   0             -15.622846      0.14309682    -0.56260665     0.54943359     0.44246353     0.026931362    0.071388508    0.48994772     4.6024508      3.9858393      7.2780183      133.51255    
       101   0             -15.622846     -0.0075082897   0.050319015   -0.068116487   -0.0047273965   0.14959537    -0.0064921388   0.014768119    4.6024508      3.9858393      7.2780183      133.51255    
       102   0             -15.622846      0.0016097854  -0.0075736038   0.0099110968   0.0024918631   0.14903648     0.014641313    0.038226053    4.6024508      3.9858393      7.2780183      133.51255    
       103   0             -15.622846      0.0023723669   0.0097441357  -0.0023977487  -0.00022928626  0.16251031     0.022944427    0.0032354355   4.6024508      3.9858393      7.2780183      133.51255    
       104   0             -15.622846     -0.0016759346  -0.0021412223  -0.00021034758 -0.0026762338   0.16405739     0.026678927    0.0020796843   4.6024508      3.9858393      7.2780183      133.51255    
       105   0             -15.622846      0.00053919412  0.00080755598 -0.0014690114   0.0022790378   0.16486499     0.026793198   -0.00042062243  4.6024508      3.9858393      7.2780183      133.51255    
       106   0             -15.622846      6.4204537e-05  0.0001157716   0.00019936498 -0.00012252296  0.16483148     0.027135227    4.2453215e-05  4.6024508      3.9858393      7.2780183      133.51255    
       107   0             -15.622846     -4.4350629e-06  3.2564528e-05 -2.572763e-05  -2.0142087e-05  0.16484973     0.027130499   -2.1904033e-05  4.6024508      3.9858393      7.2780183      133.51255    
       108   0             -15.622846      1.1056218e-07 -1.284415e-07   4.6640713e-07 -6.279079e-09   0.16484437     0.027134603   -1.645104e-07   4.6024508      3.9858393      7.2780183      133.51255    
       109   0             -15.622846      1.1028762e-07 -1.2721663e-07  4.6496743e-07 -6.8879351e-09  0.16484437     0.027134601   -1.6274915e-07  4.6024508      3.9858393      7.2780183      133.51255    
       110   0             -15.622846      1.1030067e-07 -1.2265654e-07  4.6114592e-07 -7.5873869e-09  0.16484437     0.027134594   -1.5829454e-07  4.6024508      3.9858393      7.2780183      133.51255    
       111   0             -15.622846      1.1066832e-07 -1.2381763e-07  4.6190383e-07 -6.081234e-09   0.16484437     0.027134594   -1.5690989e-07  4.6024508      3.9858393      7.2780183      133.51255    
       112   0             -15.622846      1.1044472e-07 -1.2277012e-07  4.6106016e-07 -6.9558819e-09  0.16484437     0.027134593   -1.5738853e-07  4.6024508      3.9858393      7.2780183      133.51255    
       113   0             -15.622846      1.1037827e-07 -1.2285172e-07  4.6106365e-07 -7.0771202e-09  0.16484437     0.027134593   -1.5735131e-07  4.6024508      3.9858393      7.2780183      133.51255    
       114   0             -15.622846      1.1029212e-07 -1.2297529e-07  4.6099471e-07 -7.1430685e-09  0.16484437     0.027134593   -1.573351e-07   4.6024508      3.9858393      7.2780183      133.51255    
       115   0             -15.622846      1.1029212e-07 -1.2297529e-07  4.6099471e-07 -7.1430685e-09  0.16484437     0.027134593   -1.573351e-07   4.6024508      3.9858393      7.2780183      133.51255    
Loop time of 0.00452783 on 48 procs for 15 steps with 5 atoms

99.7% CPU use with 48 MPI tasks x no OpenMP threads

Minimization stats:
  Stopping criterion = quadratic factors are zero
  Energy initial, next-to-last, final = 
      -15.622845612468  -15.6228456131352  -15.6228456131352
  Force two-norm initial, final = 8.9407974e-05 3.8427379e-15
  Force max component initial, final = 4.7898788e-05 1.5751289e-15
  Final line search alpha, max atom move = 1 1.5751289e-15
  Iterations, force evaluations = 15 30

MPI task timing breakdown:
Section |  min time  |  avg time  |  max time  |%varavg| %total
---------------------------------------------------------------
Pair    | 2.908e-06  | 0.00016489 | 0.0016086  |   0.0 |  3.64
Neigh   | 0          | 0          | 0          |   0.0 |  0.00
Comm    | 0.0016245  | 0.0029347  | 0.0033194  |   0.8 | 64.81
Output  | 0.00051011 | 0.00051692 | 0.00059139 |   0.0 | 11.42
Modify  | 0          | 0          | 0          |   0.0 |  0.00
Other   |            | 0.0009113  |            |       | 20.13

Nlocal:       0.104167 ave           1 max           0 min
Histogram: 43 0 0 0 0 0 0 0 0 5
Nghost:        159.396 ave         176 max         143 min
Histogram: 12 0 0 6 1 17 0 0 0 12
Neighs:              0 ave           0 max           0 min
Histogram: 48 0 0 0 0 0 0 0 0 0
FullNghs:      4.91667 ave          50 max           0 min
Histogram: 43 0 0 0 0 0 0 0 1 4

Total # of neighbors = 236
Ave neighs/atom = 47.2
Neighbor list builds = 0
Dangerous builds = 0
Reading restart file ...
  restart file = 24 Mar 2022, LAMMPS = 24 Mar 2022
  restoring atom style atomic from restart
  triclinic box = (0.00092487531 0.0008009656 -0.00078937289) to (4.6033757 3.9866403 7.2772289) with tilt (-2.3012254 0 0)
WARNING: Triclinic box skew is large (../domain.cpp:228)
  3 by 4 by 4 MPI processor grid
  pair style nep stores no restart info
  5 atoms
  read_restart CPU = 0.095 seconds
Use the NEP4 potential with 2 atom types.
    type 0( Mg with Z = 12).
    type 1( Bi with Z = 83).
    has universal ZBL with inner cutoff 0.75 A and outer cutoff 1.5 A.
    radial cutoff = 6 A.
    angular cutoff = 5 A.
    n_max_radial = 4.
    n_max_angular = 4.
    basis_size_radial = 10.
    basis_size_angular = 10.
    l_max_3body = 4.
    l_max_4body = 2.
    l_max_5body = 0.
    ANN = 30-80-1.
    number of neural network parameters = 5121.
    number of descriptor parameters = 440.
    total number of parameters = 5561.
Changing box ...
  triclinic box = (0.00092487531 0.0008009656 -0.00078937289) to (4.6033757 3.9866403 7.2772289) with tilt (-2.3012214 0 0)
Neighbor list info ...
  update every 1 steps, delay 0 steps, check yes
  max neighbors/atom: 2000, page size: 100000
  master list distance cutoff = 7
  ghost atom cutoff = 7
  1 neighbor lists, perpetual/occasional/extra = 1 0 0
  (1) pair nep, perpetual
      attributes: full, newton on
      pair build: full/nsq
      stencil: none
      bin: none
WARNING: Proc sub-domain size < neighbor skin, could lead to lost atoms (../domain.cpp:974)
Setting up cg style minimization ...
  Unit style    : metal
  Current step  : 100
Per MPI rank memory allocation (min/avg/max) = 4.171 | 4.171 | 4.171 Mbytes
   Step          Temp          PotEng         Press           Pxx            Pyy            Pzz            Pxy            Pxz            Pyz             Lx             Ly             Lz           Volume    
       100   0             -15.622846      0.14309894    -0.56260362     0.5494356      0.44246486    -0.51626594     0.15267702     0.48994702     4.6024508      3.9858393      7.2780183      133.51255    
       101   0             -15.622846     -0.0072845122   0.049410625   -0.06719967    -0.0040644916  -0.17820269    -0.080129035    0.015472709    4.6024508      3.9858393      7.2780183      133.51255    
       102   0             -15.622846      0.0016473342  -0.0088785489   0.012325107    0.0014954441  -0.19307365    -0.038370837    0.038044283    4.6024508      3.9858393      7.2780183      133.51255    
       103   0             -15.622846      0.0025492098   0.0093665762  -0.0015351251  -0.00018382188 -0.16684068    -0.032610413    0.0024788055   4.6024508      3.9858393      7.2780183      133.51255    
       104   0             -15.622846     -0.0017418714  -0.0022206646  -0.00021820127 -0.0027867483  -0.16613353    -0.027277813    0.0018027311   4.6024508      3.9858393      7.2780183      133.51255    
       105   0             -15.622846      0.00054057465  0.00065902421 -0.0013475292   0.0023102289  -0.16452657    -0.027689023   -0.00042145829  4.6024508      3.9858393      7.2780183      133.51255    
       106   0             -15.622846      6.4991109e-05  0.00012006419  0.0001956727  -0.00012076356 -0.16483763    -0.027118936    3.644264e-05   4.6024508      3.9858393      7.2780183      133.51255    
       107   0             -15.622846     -4.7218084e-06  2.9328426e-05 -2.2050782e-05 -2.1443069e-05 -0.16479784    -0.027139372   -1.9362546e-05  4.6024508      3.9858393      7.2780183      133.51255    
       108   0             -15.622846      1.1002599e-07 -1.2668705e-07  4.6406863e-07 -7.3036093e-09 -0.16481139    -0.027129157   -1.6173833e-07  4.6024508      3.9858393      7.2780183      133.51255    
       109   0             -15.622846      1.1056812e-07 -1.2322926e-07  4.6139789e-07 -6.4642672e-09 -0.1648114     -0.027129164   -1.5893265e-07  4.6024508      3.9858393      7.2780183      133.51255    
       110   0             -15.622846      1.1037561e-07 -1.2289119e-07  4.6117374e-07 -7.1557252e-09 -0.1648114     -0.027129166   -1.5747287e-07  4.6024508      3.9858393      7.2780183      133.51255    
       111   0             -15.622846      1.1037716e-07 -1.2270933e-07  4.6070477e-07 -6.8639539e-09 -0.1648114     -0.027129166   -1.5737958e-07  4.6024508      3.9858393      7.2780183      133.51255    
       112   0             -15.622846      1.1028534e-07 -1.2290851e-07  4.6082901e-07 -7.0644634e-09 -0.1648114     -0.027129167   -1.5729543e-07  4.6024508      3.9858393      7.2780183      133.51255    
       113   0             -15.622846      1.1023189e-07 -1.2294648e-07  4.6076855e-07 -7.1264149e-09 -0.1648114     -0.027129167   -1.5728118e-07  4.6024508      3.9858393      7.2780183      133.51255    
       114   0             -15.622846      1.1027891e-07 -1.2288053e-07  4.6077571e-07 -7.0584681e-09 -0.1648114     -0.027129167   -1.5731095e-07  4.6024508      3.9858393      7.2780183      133.51255    
       115   0             -15.622846      1.1027891e-07 -1.2288053e-07  4.6077571e-07 -7.0584681e-09 -0.1648114     -0.027129167   -1.5731095e-07  4.6024508      3.9858393      7.2780183      133.51255    
Loop time of 0.00477412 on 48 procs for 15 steps with 5 atoms

99.4% CPU use with 48 MPI tasks x no OpenMP threads

Minimization stats:
  Stopping criterion = quadratic factors are zero
  Energy initial, next-to-last, final = 
     -15.6228456124272  -15.6228456131352  -15.6228456131352
  Force two-norm initial, final = 9.2008414e-05 4.3768912e-15
  Force max component initial, final = 4.7898698e-05 1.6653345e-15
  Final line search alpha, max atom move = 1 1.6653345e-15
  Iterations, force evaluations = 15 30

MPI task timing breakdown:
Section |  min time  |  avg time  |  max time  |%varavg| %total
---------------------------------------------------------------
Pair    | 3.023e-06  | 0.00017287 | 0.0017861  |   0.0 |  3.62
Neigh   | 0          | 0          | 0          |   0.0 |  0.00
Comm    | 0.0017781  | 0.0031177  | 0.0035652  |   0.8 | 65.30
Output  | 0.00049551 | 0.00050748 | 0.00054195 |   0.0 | 10.63
Modify  | 0          | 0          | 0          |   0.0 |  0.00
Other   |            | 0.0009761  |            |       | 20.44

Nlocal:       0.104167 ave           1 max           0 min
Histogram: 43 0 0 0 0 0 0 0 0 5
Nghost:        159.396 ave         176 max         143 min
Histogram: 12 0 0 6 1 17 0 0 0 12
Neighs:              0 ave           0 max           0 min
Histogram: 48 0 0 0 0 0 0 0 0 0
FullNghs:      4.91667 ave          50 max           0 min
Histogram: 43 0 0 0 0 0 0 0 1 4

Total # of neighbors = 236
Ave neighs/atom = 47.2
Neighbor list builds = 0
Dangerous builds = 0
=========================================
Components of the Elastic Constant Tensor
=========================================
Elastic Constant C11all = 69.0431124623649 GPa
Elastic Constant C22all = 69.0431124706832 GPa
Elastic Constant C33all = 77.137111831529 GPa
Elastic Constant C12all = 36.0775359913613 GPa
Elastic Constant C13all = 24.175854395325 GPa
Elastic Constant C23all = 24.175854396295 GPa
Elastic Constant C44all = 17.0687693728121 GPa
Elastic Constant C55all = 17.0687693763775 GPa
Elastic Constant C66all = 16.4827882360087 GPa
Elastic Constant C14all = 2.71318799883771 GPa
Elastic Constant C15all = -1.27724395202915e-08 GPa
Elastic Constant C16all = -1.13489226952993e-09 GPa
Elastic Constant C24all = -2.713188000159 GPa
Elastic Constant C25all = -2.36404941380322e-09 GPa
Elastic Constant C26all = 8.37421445270993e-09 GPa
Elastic Constant C34all = 1.86858818680806e-09 GPa
Elastic Constant C35all = -2.26104161555238e-09 GPa
Elastic Constant C36all = -1.37970415258149e-09 GPa
Elastic Constant C45all = 3.3416952270063e-10 GPa
Elastic Constant C46all = -1.26405442112671e-09 GPa
Elastic Constant C56all = 2.71318800034207 GPa
=========================================
Average elastic properties (3D non-cubic)
Isotropic Voigt averages from full C_ij
=========================================
Bulk Modulus (Voigt)      = 42.6757584811711 GPa
Shear Modulus (Voigt)     = 18.8436715291461 GPa
Young Modulus (Voigt)   = 49.2780357508999 GPa
Poisson Ratio (Voigt)     = 0.307548682184361
Total wall time: 0:00:04
