
     Program PWSCF v.7.5 starts on 23Aug2026 at 19: 3: 2 
        Git branch: develop
        Last git commit: 3c11e307ebcb4724b3e63ad706b3e9727dda56b0
        Last git commit date: Wed Jul 2 15:08:17 2025 +0000
        Last git commit subject: Merge branch 'a-few-qe-75-chores' into 'develop'

     This program is part of the open-source Quantum ESPRESSO suite
     for quantum simulation of materials; please cite
         "P. Giannozzi et al., J. Phys.:Condens. Matter 21 395502 (2009);
         "P. Giannozzi et al., J. Phys.:Condens. Matter 29 465901 (2017);
         "P. Giannozzi et al., J. Chem. Phys. 152 154105 (2020);
          URL http://www.quantum-espresso.org", 
     in publications or presentations arising from this work. More details at
     http://www.quantum-espresso.org/quote

     Parallel version (MPI), running on   240 processors

     MPI processes distributed on     5 nodes
     711581 MiB available memory on the printing compute node when the environment starts
 
     Waiting for input...
     Reading input from standard input
Warning: card &CELL ignored
Warning: card &FCP ignored
Warning: card &RISM ignored

     Current dimensions of program PWSCF are:
     Max number of different atomic species (ntypx) = 10
     Max number of k-points (npk) =  40000
     Max angular momentum in pseudopotentials (lmaxx) =  4
 
     K-points division:     npool     =       3
     R & G space division:  proc/nbgrp/npool/nimage =      80
     Subspace diagonalization in iterative solution of the eigenvalue problem:
     one sub-group per band group will be used
     custom distributed-memory algorithm (size of sub-group:  6*  6 procs)

 
     Parallelization info
     --------------------
     sticks:   dense  smooth     PW     G-vecs:    dense   smooth      PW
     Min         375     375     96                55452    55452    7232
     Max         377     377     97                55456    55456    7239
     Sum       30067   30067   7741              4436351  4436351  578813
 
     Using Slab Decomposition
 


     bravais-lattice index     =            0
     lattice parameter (alat)  =      26.1026  a.u.
     unit-cell volume          =   16227.2901 (a.u.)^3
     number of atoms/cell      =           90
     number of atomic types    =            2
     number of electrons       =      1080.00
     number of Kohn-Sham states=          648
     kinetic-energy cutoff     =     160.0000  Ry
     charge density cutoff     =     640.0000  Ry
     scf convergence threshold =      1.0E-10
     mixing beta               =       0.3000
     number of iterations used =            8  plain     mixing
     Exchange-correlation= SLA  PW   NOGX NOGC
                           (   1   4   0   0   0   0   0)

     celldm(1)=  26.102601  celldm(2)=   0.000000  celldm(3)=   0.000000
     celldm(4)=   0.000000  celldm(5)=   0.000000  celldm(6)=   0.000000

     crystal axes: (cart. coord. in units of alat)
               a(1) = (   1.000000   0.000000   0.000000 )  
               a(2) = (  -0.500000   0.866025   0.000000 )  
               a(3) = (   0.000000   0.000000   1.053571 )  

     reciprocal axes: (cart. coord. in units 2 pi/alat)
               b(1) = (  1.000000  0.577350 -0.000000 )  
               b(2) = (  0.000000  1.154701  0.000000 )  
               b(3) = (  0.000000 -0.000000  0.949153 )  


     PseudoPot. # 1 for Mg read from file:
     /home/IITB/multiscale-mechanics/amit.k.singh/PP/LDA_ONCV/Mg.UPF
     MD5 check sum: b625b74613aebb94f78e131e92efc946
     Pseudo is Norm-conserving, Zval = 10.0
     Generated using ONCVPSP code by D. R. Hamann
     Using radial grid of 1510 points,  4 beta functions with: 
                l(1) =   0
                l(2) =   0
                l(3) =   1
                l(4) =   1

     PseudoPot. # 2 for Bi read from file:
     /home/IITB/multiscale-mechanics/amit.k.singh/PP/LDA_ONCV/Bi.UPF
     MD5 check sum: 56dda99c34bc3f5cc94f668e0bde5a74
     Pseudo is Norm-conserving + core correction, Zval = 15.0
     Generated using ONCVPSP code by D. R. Hamann
     Using radial grid of 1454 points,  6 beta functions with: 
                l(1) =   0
                l(2) =   0
                l(3) =   1
                l(4) =   1
                l(5) =   2
                l(6) =   2

     atomic species   valence    mass     pseudopotential
     Mg               10.00    24.30500     Mg( 1.00)
     Bi               15.00   208.98040     Bi( 1.00)

     No symmetry found


                                    s                        frac. trans.

      isym =  1     identity                                     

 cryst.   s( 1) = (     1          0          0      )
                  (     0          1          0      )
                  (     0          0          1      )

 cart.    s( 1) = (  1.0000000  0.0000000  0.0000000 )
                  (  0.0000000  1.0000000  0.0000000 )
                  (  0.0000000  0.0000000  1.0000000 )


   Cartesian axes

     site n.     atom                  positions (alat units)
         1        Mg     tau(   1) = (   0.0005275   0.1924501   0.3315981  )
         2        Mg     tau(   2) = (   0.3333333   0.1924501   0.3310424  )
         3        Mg     tau(   3) = (   0.6666667   0.1924501   0.3310424  )
         4        Mg     tau(   4) = (  -0.1666667   0.4811252   0.3310424  )
         5        Mg     tau(   5) = (   0.1666667   0.4811252   0.3310424  )
         6        Mg     tau(   6) = (   0.5000000   0.4811252   0.3310424  )
         7        Mg     tau(   7) = (  -0.3333333   0.7698004   0.3310424  )
         8        Mg     tau(   8) = (  -0.0000000   0.7698004   0.3310424  )
         9        Mg     tau(   9) = (   0.3333333   0.7698004   0.3310424  )
        10        Mg     tau(  10) = (  -0.0000000   0.1924501   0.8578281  )
        11        Mg     tau(  11) = (   0.3333333   0.1924501   0.8578281  )
        12        Mg     tau(  12) = (   0.6666667   0.1924501   0.8578281  )
        13        Mg     tau(  13) = (  -0.1666667   0.4811252   0.8578281  )
        14        Mg     tau(  14) = (   0.1666667   0.4811252   0.8578281  )
        15        Mg     tau(  15) = (   0.5000000   0.4811252   0.8578281  )
        16        Mg     tau(  16) = (  -0.3333333   0.7698004   0.8578281  )
        17        Mg     tau(  17) = (  -0.0000000   0.7698004   0.8578281  )
        18        Mg     tau(  18) = (   0.3333333   0.7698004   0.8578281  )
        19        Mg     tau(  19) = (   0.1666667   0.0962250   0.1957433  )
        20        Mg     tau(  20) = (   0.5000000   0.0962250   0.1957433  )
        21        Mg     tau(  21) = (   0.8333333   0.0962250   0.1957433  )
        22        Mg     tau(  22) = (   0.0000000   0.3849002   0.1957433  )
        23        Mg     tau(  23) = (   0.3333333   0.3849002   0.1957433  )
        24        Mg     tau(  24) = (   0.6666667   0.3849002   0.1957433  )
        25        Mg     tau(  25) = (  -0.1666667   0.6735753   0.1957433  )
        26        Mg     tau(  26) = (   0.1666667   0.6735753   0.1957433  )
        27        Mg     tau(  27) = (   0.5000000   0.6735753   0.1957433  )
        28        Mg     tau(  28) = (   0.1666667   0.0962250   0.7225291  )
        29        Mg     tau(  29) = (   0.5000000   0.0962250   0.7225291  )
        30        Mg     tau(  30) = (   0.8333333   0.0962250   0.7225291  )
        31        Mg     tau(  31) = (   0.0000000   0.3849002   0.7225291  )
        32        Mg     tau(  32) = (   0.3333333   0.3849002   0.7225291  )
        33        Mg     tau(  33) = (   0.6666667   0.3849002   0.7225291  )
        34        Mg     tau(  34) = (  -0.1666667   0.6735753   0.7225291  )
        35        Mg     tau(  35) = (   0.1666667   0.6735753   0.7225291  )
        36        Mg     tau(  36) = (   0.5000000   0.6735753   0.7225291  )
        37        Mg     tau(  37) = (   0.0000000   0.0000000   0.0000000  )
        38        Mg     tau(  38) = (   0.3333333   0.0000000   0.0000000  )
        39        Mg     tau(  39) = (   0.6666667   0.0000000   0.0000000  )
        40        Mg     tau(  40) = (  -0.1666667   0.2886751   0.0000000  )
        41        Mg     tau(  41) = (   0.1666667   0.2886751   0.0000000  )
        42        Mg     tau(  42) = (   0.5000000   0.2886751   0.0000000  )
        43        Mg     tau(  43) = (   0.6666667   0.5773503   0.0000000  )
        44        Mg     tau(  44) = (  -0.0000000   0.5773503   0.0000000  )
        45        Mg     tau(  45) = (   0.3333333   0.5773503   0.0000000  )
        46        Mg     tau(  46) = (   0.0000000   0.0000000   0.5267857  )
        47        Mg     tau(  47) = (   0.3333333   0.0000000   0.5267857  )
        48        Mg     tau(  48) = (   0.6666667   0.0000000   0.5267857  )
        49        Mg     tau(  49) = (  -0.1666667   0.2886751   0.5267857  )
        50        Mg     tau(  50) = (   0.1666667   0.2886751   0.5267857  )
        51        Mg     tau(  51) = (   0.5000000   0.2886751   0.5267857  )
        52        Mg     tau(  52) = (   0.6666667   0.5773503   0.5267857  )
        53        Mg     tau(  53) = (  -0.0000000   0.5773503   0.5267857  )
        54        Mg     tau(  54) = (   0.3333333   0.5773503   0.5267857  )
        55        Bi     tau(  55) = (  -0.0000000   0.1924501   0.1157243  )
        56        Bi     tau(  56) = (   0.3333333   0.1924501   0.1157243  )
        57        Bi     tau(  57) = (   0.6666667   0.1924501   0.1157243  )
        58        Bi     tau(  58) = (  -0.1666667   0.4811252   0.1157243  )
        59        Bi     tau(  59) = (   0.1666667   0.4811252   0.1157243  )
        60        Bi     tau(  60) = (   0.5000000   0.4811252   0.1157243  )
        61        Bi     tau(  61) = (  -0.3333333   0.7698004   0.1157243  )
        62        Bi     tau(  62) = (  -0.0000000   0.7698004   0.1157243  )
        63        Bi     tau(  63) = (   0.3333333   0.7698004   0.1157243  )
        64        Bi     tau(  64) = (  -0.0000000   0.1924501   0.6425100  )
        65        Bi     tau(  65) = (   0.3333333   0.1924501   0.6425100  )
        66        Bi     tau(  66) = (   0.6666667   0.1924501   0.6425100  )
        67        Bi     tau(  67) = (  -0.1666667   0.4811252   0.6425100  )
        68        Bi     tau(  68) = (   0.1666667   0.4811252   0.6425100  )
        69        Bi     tau(  69) = (   0.5000000   0.4811252   0.6425100  )
        70        Bi     tau(  70) = (  -0.3333333   0.7698004   0.6425100  )
        71        Bi     tau(  71) = (  -0.0000000   0.7698004   0.6425100  )
        72        Bi     tau(  72) = (   0.3333333   0.7698004   0.6425100  )
        73        Bi     tau(  73) = (   0.1666667   0.0962250   0.4110615  )
        74        Bi     tau(  74) = (   0.5000000   0.0962250   0.4110615  )
        75        Bi     tau(  75) = (   0.8333333   0.0962250   0.4110615  )
        76        Bi     tau(  76) = (   0.0000000   0.3849002   0.4110615  )
        77        Bi     tau(  77) = (   0.3333333   0.3849002   0.4110615  )
        78        Bi     tau(  78) = (   0.6666667   0.3849002   0.4110615  )
        79        Bi     tau(  79) = (  -0.1666667   0.6735753   0.4110615  )
        80        Bi     tau(  80) = (   0.1666667   0.6735753   0.4110615  )
        81        Bi     tau(  81) = (   0.5000000   0.6735753   0.4110615  )
        82        Bi     tau(  82) = (   0.1666667   0.0962250   0.9378472  )
        83        Bi     tau(  83) = (   0.5000000   0.0962250   0.9378472  )
        84        Bi     tau(  84) = (   0.8333333   0.0962250   0.9378472  )
        85        Bi     tau(  85) = (   0.0000000   0.3849002   0.9378472  )
        86        Bi     tau(  86) = (   0.3333333   0.3849002   0.9378472  )
        87        Bi     tau(  87) = (   0.6666667   0.3849002   0.9378472  )
        88        Bi     tau(  88) = (  -0.1666667   0.6735753   0.9378472  )
        89        Bi     tau(  89) = (   0.1666667   0.6735753   0.9378472  )
        90        Bi     tau(  90) = (   0.5000000   0.6735753   0.9378472  )

   Crystallographic axes

     site n.     atom                  positions (cryst. coord.)
         1        Mg     tau(   1) = (  0.1116386  0.2222222  0.3147372  )
         2        Mg     tau(   2) = (  0.4444444  0.2222222  0.3142097  )
         3        Mg     tau(   3) = (  0.7777778  0.2222222  0.3142097  )
         4        Mg     tau(   4) = (  0.1111111  0.5555556  0.3142097  )
         5        Mg     tau(   5) = (  0.4444444  0.5555556  0.3142097  )
         6        Mg     tau(   6) = (  0.7777778  0.5555556  0.3142097  )
         7        Mg     tau(   7) = (  0.1111111  0.8888889  0.3142097  )
         8        Mg     tau(   8) = (  0.4444444  0.8888889  0.3142097  )
         9        Mg     tau(   9) = (  0.7777778  0.8888889  0.3142097  )
        10        Mg     tau(  10) = (  0.1111111  0.2222222  0.8142097  )
        11        Mg     tau(  11) = (  0.4444444  0.2222222  0.8142097  )
        12        Mg     tau(  12) = (  0.7777778  0.2222222  0.8142097  )
        13        Mg     tau(  13) = (  0.1111111  0.5555556  0.8142097  )
        14        Mg     tau(  14) = (  0.4444444  0.5555556  0.8142097  )
        15        Mg     tau(  15) = (  0.7777778  0.5555556  0.8142097  )
        16        Mg     tau(  16) = (  0.1111111  0.8888889  0.8142097  )
        17        Mg     tau(  17) = (  0.4444444  0.8888889  0.8142097  )
        18        Mg     tau(  18) = (  0.7777778  0.8888889  0.8142097  )
        19        Mg     tau(  19) = (  0.2222222  0.1111111  0.1857903  )
        20        Mg     tau(  20) = (  0.5555556  0.1111111  0.1857903  )
        21        Mg     tau(  21) = (  0.8888889  0.1111111  0.1857903  )
        22        Mg     tau(  22) = (  0.2222222  0.4444444  0.1857903  )
        23        Mg     tau(  23) = (  0.5555556  0.4444444  0.1857903  )
        24        Mg     tau(  24) = (  0.8888889  0.4444444  0.1857903  )
        25        Mg     tau(  25) = (  0.2222222  0.7777778  0.1857903  )
        26        Mg     tau(  26) = (  0.5555556  0.7777778  0.1857903  )
        27        Mg     tau(  27) = (  0.8888889  0.7777778  0.1857903  )
        28        Mg     tau(  28) = (  0.2222222  0.1111111  0.6857903  )
        29        Mg     tau(  29) = (  0.5555556  0.1111111  0.6857903  )
        30        Mg     tau(  30) = (  0.8888889  0.1111111  0.6857903  )
        31        Mg     tau(  31) = (  0.2222222  0.4444444  0.6857903  )
        32        Mg     tau(  32) = (  0.5555556  0.4444444  0.6857903  )
        33        Mg     tau(  33) = (  0.8888889  0.4444444  0.6857903  )
        34        Mg     tau(  34) = (  0.2222222  0.7777778  0.6857903  )
        35        Mg     tau(  35) = (  0.5555556  0.7777778  0.6857903  )
        36        Mg     tau(  36) = (  0.8888889  0.7777778  0.6857903  )
        37        Mg     tau(  37) = (  0.0000000  0.0000000  0.0000000  )
        38        Mg     tau(  38) = (  0.3333333  0.0000000  0.0000000  )
        39        Mg     tau(  39) = (  0.6666667  0.0000000  0.0000000  )
        40        Mg     tau(  40) = ( -0.0000000  0.3333333  0.0000000  )
        41        Mg     tau(  41) = (  0.3333333  0.3333333  0.0000000  )
        42        Mg     tau(  42) = (  0.6666667  0.3333333  0.0000000  )
        43        Mg     tau(  43) = (  1.0000000  0.6666667  0.0000000  )
        44        Mg     tau(  44) = (  0.3333333  0.6666667  0.0000000  )
        45        Mg     tau(  45) = (  0.6666667  0.6666667  0.0000000  )
        46        Mg     tau(  46) = (  0.0000000  0.0000000  0.5000000  )
        47        Mg     tau(  47) = (  0.3333333  0.0000000  0.5000000  )
        48        Mg     tau(  48) = (  0.6666667  0.0000000  0.5000000  )
        49        Mg     tau(  49) = ( -0.0000000  0.3333333  0.5000000  )
        50        Mg     tau(  50) = (  0.3333333  0.3333333  0.5000000  )
        51        Mg     tau(  51) = (  0.6666667  0.3333333  0.5000000  )
        52        Mg     tau(  52) = (  1.0000000  0.6666667  0.5000000  )
        53        Mg     tau(  53) = (  0.3333333  0.6666667  0.5000000  )
        54        Mg     tau(  54) = (  0.6666667  0.6666667  0.5000000  )
        55        Bi     tau(  55) = (  0.1111111  0.2222222  0.1098400  )
        56        Bi     tau(  56) = (  0.4444444  0.2222222  0.1098400  )
        57        Bi     tau(  57) = (  0.7777778  0.2222222  0.1098400  )
        58        Bi     tau(  58) = (  0.1111111  0.5555556  0.1098400  )
        59        Bi     tau(  59) = (  0.4444444  0.5555556  0.1098400  )
        60        Bi     tau(  60) = (  0.7777778  0.5555556  0.1098400  )
        61        Bi     tau(  61) = (  0.1111111  0.8888889  0.1098400  )
        62        Bi     tau(  62) = (  0.4444444  0.8888889  0.1098400  )
        63        Bi     tau(  63) = (  0.7777778  0.8888889  0.1098400  )
        64        Bi     tau(  64) = (  0.1111111  0.2222222  0.6098400  )
        65        Bi     tau(  65) = (  0.4444444  0.2222222  0.6098400  )
        66        Bi     tau(  66) = (  0.7777778  0.2222222  0.6098400  )
        67        Bi     tau(  67) = (  0.1111111  0.5555556  0.6098400  )
        68        Bi     tau(  68) = (  0.4444444  0.5555556  0.6098400  )
        69        Bi     tau(  69) = (  0.7777778  0.5555556  0.6098400  )
        70        Bi     tau(  70) = (  0.1111111  0.8888889  0.6098400  )
        71        Bi     tau(  71) = (  0.4444444  0.8888889  0.6098400  )
        72        Bi     tau(  72) = (  0.7777778  0.8888889  0.6098400  )
        73        Bi     tau(  73) = (  0.2222222  0.1111111  0.3901600  )
        74        Bi     tau(  74) = (  0.5555556  0.1111111  0.3901600  )
        75        Bi     tau(  75) = (  0.8888889  0.1111111  0.3901600  )
        76        Bi     tau(  76) = (  0.2222222  0.4444444  0.3901600  )
        77        Bi     tau(  77) = (  0.5555556  0.4444444  0.3901600  )
        78        Bi     tau(  78) = (  0.8888889  0.4444444  0.3901600  )
        79        Bi     tau(  79) = (  0.2222222  0.7777778  0.3901600  )
        80        Bi     tau(  80) = (  0.5555556  0.7777778  0.3901600  )
        81        Bi     tau(  81) = (  0.8888889  0.7777778  0.3901600  )
        82        Bi     tau(  82) = (  0.2222222  0.1111111  0.8901600  )
        83        Bi     tau(  83) = (  0.5555556  0.1111111  0.8901600  )
        84        Bi     tau(  84) = (  0.8888889  0.1111111  0.8901600  )
        85        Bi     tau(  85) = (  0.2222222  0.4444444  0.8901600  )
        86        Bi     tau(  86) = (  0.5555556  0.4444444  0.8901600  )
        87        Bi     tau(  87) = (  0.8888889  0.4444444  0.8901600  )
        88        Bi     tau(  88) = (  0.2222222  0.7777778  0.8901600  )
        89        Bi     tau(  89) = (  0.5555556  0.7777778  0.8901600  )
        90        Bi     tau(  90) = (  0.8888889  0.7777778  0.8901600  )

     number of k points=    36  Methfessel-Paxton smearing, width (Ry)=  0.0100
                       cart. coord. in units 2pi/alat
        k(    1) = (   0.0000000   0.0000000   0.0000000), wk =   0.0312500
        k(    2) = (   0.0000000   0.0000000   0.2372881), wk =   0.0625000
        k(    3) = (   0.0000000   0.0000000  -0.4745763), wk =   0.0312500
        k(    4) = (   0.0000000   0.2886751   0.0000000), wk =   0.0625000
        k(    5) = (   0.0000000   0.2886751   0.2372881), wk =   0.0625000
        k(    6) = (   0.0000000   0.2886751  -0.4745763), wk =   0.0625000
        k(    7) = (   0.0000000  -0.5773503   0.0000000), wk =   0.0312500
        k(    8) = (   0.0000000  -0.5773503   0.2372881), wk =   0.0625000
        k(    9) = (   0.0000000  -0.5773503  -0.4745763), wk =   0.0312500
        k(   10) = (   0.2500000   0.4330127   0.0000000), wk =   0.0625000
        k(   11) = (   0.2500000   0.4330127   0.2372881), wk =   0.0625000
        k(   12) = (   0.2500000   0.4330127  -0.4745763), wk =   0.0625000
        k(   13) = (  -0.2500000   0.1443376   0.0000000), wk =   0.0625000
        k(   14) = (   0.2500000   0.1443376   0.0000000), wk =   0.0625000
        k(   15) = (   0.0000000  -0.2886751   0.2372881), wk =   0.0625000
        k(   16) = (  -0.2500000   0.1443376   0.2372881), wk =   0.0625000
        k(   17) = (   0.2500000   0.1443376   0.2372881), wk =   0.0625000
        k(   18) = (  -0.2500000  -0.1443376   0.2372881), wk =   0.0625000
        k(   19) = (   0.2500000  -0.1443376   0.2372881), wk =   0.0625000
        k(   20) = (  -0.2500000   0.1443376  -0.4745763), wk =   0.0625000
        k(   21) = (   0.2500000   0.1443376  -0.4745763), wk =   0.0625000
        k(   22) = (   0.5000000  -0.2886751   0.0000000), wk =   0.0312500
        k(   23) = (  -0.5000000  -0.2886751   0.0000000), wk =   0.0312500
        k(   24) = (   0.5000000  -0.2886751   0.2372881), wk =   0.0625000
        k(   25) = (  -0.5000000  -0.2886751   0.2372881), wk =   0.0625000
        k(   26) = (   0.5000000  -0.2886751  -0.4745763), wk =   0.0312500
        k(   27) = (  -0.5000000  -0.2886751  -0.4745763), wk =   0.0312500
        k(   28) = (  -0.2500000   0.4330127   0.0000000), wk =   0.0625000
        k(   29) = (   0.5000000   0.0000000   0.0000000), wk =   0.0625000
        k(   30) = (  -0.2500000  -0.4330127   0.2372881), wk =   0.0625000
        k(   31) = (  -0.2500000   0.4330127  -0.2372881), wk =   0.0625000
        k(   32) = (   0.2500000  -0.4330127  -0.2372881), wk =   0.0625000
        k(   33) = (   0.5000000   0.0000000   0.2372881), wk =   0.0625000
        k(   34) = (  -0.5000000  -0.0000000   0.2372881), wk =   0.0625000
        k(   35) = (  -0.2500000   0.4330127   0.4745763), wk =   0.0625000
        k(   36) = (   0.5000000   0.0000000  -0.4745763), wk =   0.0625000

                       cryst. coord.
        k(    1) = (   0.0000000   0.0000000   0.0000000), wk =   0.0312500
        k(    2) = (   0.0000000   0.0000000   0.2500000), wk =   0.0625000
        k(    3) = (   0.0000000   0.0000000  -0.5000000), wk =   0.0312500
        k(    4) = (   0.0000000   0.2500000   0.0000000), wk =   0.0625000
        k(    5) = (   0.0000000   0.2500000   0.2500000), wk =   0.0625000
        k(    6) = (   0.0000000   0.2500000  -0.5000000), wk =   0.0625000
        k(    7) = (   0.0000000  -0.5000000   0.0000000), wk =   0.0312500
        k(    8) = (   0.0000000  -0.5000000   0.2500000), wk =   0.0625000
        k(    9) = (   0.0000000  -0.5000000  -0.5000000), wk =   0.0312500
        k(   10) = (   0.2500000   0.2500000   0.0000000), wk =   0.0625000
        k(   11) = (   0.2500000   0.2500000   0.2500000), wk =   0.0625000
        k(   12) = (   0.2500000   0.2500000  -0.5000000), wk =   0.0625000
        k(   13) = (  -0.2500000   0.2500000   0.0000000), wk =   0.0625000
        k(   14) = (   0.2500000  -0.0000000   0.0000000), wk =   0.0625000
        k(   15) = (   0.0000000  -0.2500000   0.2500000), wk =   0.0625000
        k(   16) = (  -0.2500000   0.2500000   0.2500000), wk =   0.0625000
        k(   17) = (   0.2500000  -0.0000000   0.2500000), wk =   0.0625000
        k(   18) = (  -0.2500000   0.0000000   0.2500000), wk =   0.0625000
        k(   19) = (   0.2500000  -0.2500000   0.2500000), wk =   0.0625000
        k(   20) = (  -0.2500000   0.2500000  -0.5000000), wk =   0.0625000
        k(   21) = (   0.2500000  -0.0000000  -0.5000000), wk =   0.0625000
        k(   22) = (   0.5000000  -0.5000000   0.0000000), wk =   0.0312500
        k(   23) = (  -0.5000000   0.0000000   0.0000000), wk =   0.0312500
        k(   24) = (   0.5000000  -0.5000000   0.2500000), wk =   0.0625000
        k(   25) = (  -0.5000000   0.0000000   0.2500000), wk =   0.0625000
        k(   26) = (   0.5000000  -0.5000000  -0.5000000), wk =   0.0312500
        k(   27) = (  -0.5000000   0.0000000  -0.5000000), wk =   0.0312500
        k(   28) = (  -0.2500000   0.5000000   0.0000000), wk =   0.0625000
        k(   29) = (   0.5000000  -0.2500000   0.0000000), wk =   0.0625000
        k(   30) = (  -0.2500000  -0.2500000   0.2500000), wk =   0.0625000
        k(   31) = (  -0.2500000   0.5000000  -0.2500000), wk =   0.0625000
        k(   32) = (   0.2500000  -0.5000000  -0.2500000), wk =   0.0625000
        k(   33) = (   0.5000000  -0.2500000   0.2500000), wk =   0.0625000
        k(   34) = (  -0.5000000   0.2500000   0.2500000), wk =   0.0625000
        k(   35) = (  -0.2500000   0.5000000   0.5000000), wk =   0.0625000
        k(   36) = (   0.5000000  -0.2500000  -0.5000000), wk =   0.0625000

     Dense  grid:  4436351 G-vectors     FFT dimensions: ( 216, 216, 225)

     Dynamical RAM for                 wfc:      68.54 MB

     Dynamical RAM for     wfc (w. buffer):     891.04 MB

     Dynamical RAM for           str. fact:       1.69 MB

     Dynamical RAM for           local pot:       0.00 MB

     Dynamical RAM for          nlocal pot:     114.24 MB

     Dynamical RAM for                qrad:       4.06 MB

     Dynamical RAM for          rho,v,vnew:       5.74 MB

     Dynamical RAM for               rhoin:       1.91 MB

     Dynamical RAM for            rho*nmix:      13.54 MB

     Dynamical RAM for           G-vectors:       3.60 MB

     Dynamical RAM for          h,s,v(r/c):       2.14 MB

     Dynamical RAM for          <psi|beta>:      10.68 MB

     Dynamical RAM for                 psi:     137.08 MB

     Dynamical RAM for                hpsi:     137.08 MB

     Dynamical RAM for      wfcinit/wfcrot:     146.70 MB

     Estimated static dynamical RAM per process >       1.01 GB

     Estimated max dynamical RAM per process >       1.30 GB

     Estimated total dynamical RAM >     309.76 GB

     Initial potential from superposition of free atoms

     starting charge    1079.9367, renormalised to    1080.0000
     Starting wfcs are  594 randomized atomic wfcs +   54 random wfcs

     total cpu time spent up to now is      150.3 secs

     per-process dynamical memory:  1312.5 Mb

     Self-consistent Calculation

     iteration #  1     ecut=   160.00 Ry     beta= 0.30
     Davidson diagonalization with overlap

---- Real-time Memory Report at c_bands before calling an iterative solver
          1477 MiB given to the printing process from OS
          1281 MiB allocation reported by mallinfo(arena+hblkhd)
        657587 MiB available memory on the node where the printing process lives
------------------
     ethr =  1.00E-02,  avg # of iterations =  5.6

     Threshold (ethr) on eigenvalues was too large:
     Diagonalizing with lowered threshold

     Davidson diagonalization with overlap

---- Real-time Memory Report at c_bands before calling an iterative solver
          1690 MiB given to the printing process from OS
          1289 MiB allocation reported by mallinfo(arena+hblkhd)
        657515 MiB available memory on the node where the printing process lives
------------------
     ethr =  2.09E-04,  avg # of iterations = 11.7

     total cpu time spent up to now is     1102.9 secs

     total energy              =  -12302.34307201 Ry
     estimated scf accuracy    <       2.10899873 Ry

     iteration #  2     ecut=   160.00 Ry     beta= 0.30
     Davidson diagonalization with overlap

---- Real-time Memory Report at c_bands before calling an iterative solver
          1695 MiB given to the printing process from OS
          1289 MiB allocation reported by mallinfo(arena+hblkhd)
        657412 MiB available memory on the node where the printing process lives
------------------
     ethr =  1.95E-04,  avg # of iterations =  2.6

     total cpu time spent up to now is     1493.1 secs

     total energy              =  -12302.23000833 Ry
     estimated scf accuracy    <       0.56365974 Ry

     iteration #  3     ecut=   160.00 Ry     beta= 0.30
     Davidson diagonalization with overlap

---- Real-time Memory Report at c_bands before calling an iterative solver
          1706 MiB given to the printing process from OS
          1295 MiB allocation reported by mallinfo(arena+hblkhd)
        657127 MiB available memory on the node where the printing process lives
------------------
     c_bands:  3 eigenvalues not converged
     c_bands:  1 eigenvalues not converged
     ethr =  5.22E-05,  avg # of iterations =  9.1

     total cpu time spent up to now is     1960.5 secs

     total energy              =  -12302.28427447 Ry
     estimated scf accuracy    <       0.05248088 Ry

     iteration #  4     ecut=   160.00 Ry     beta= 0.30
     Davidson diagonalization with overlap

---- Real-time Memory Report at c_bands before calling an iterative solver
          1710 MiB given to the printing process from OS
          1301 MiB allocation reported by mallinfo(arena+hblkhd)
        656978 MiB available memory on the node where the printing process lives
------------------
     c_bands:  1 eigenvalues not converged
     c_bands:  3 eigenvalues not converged
     c_bands:  1 eigenvalues not converged
     ethr =  4.86E-06,  avg # of iterations = 14.9

     total cpu time spent up to now is     2468.6 secs

     total energy              =  -12302.28517327 Ry
     estimated scf accuracy    <       0.01485666 Ry

     iteration #  5     ecut=   160.00 Ry     beta= 0.30
     Davidson diagonalization with overlap

---- Real-time Memory Report at c_bands before calling an iterative solver
          1715 MiB given to the printing process from OS
          1303 MiB allocation reported by mallinfo(arena+hblkhd)
        656848 MiB available memory on the node where the printing process lives
------------------
     c_bands:  1 eigenvalues not converged
     ethr =  1.38E-06,  avg # of iterations =  3.3

     total cpu time spent up to now is     2887.7 secs

     total energy              =  -12302.28604433 Ry
     estimated scf accuracy    <       0.00158211 Ry

     iteration #  6     ecut=   160.00 Ry     beta= 0.30
     Davidson diagonalization with overlap

---- Real-time Memory Report at c_bands before calling an iterative solver
          1717 MiB given to the printing process from OS
          1304 MiB allocation reported by mallinfo(arena+hblkhd)
        656781 MiB available memory on the node where the printing process lives
------------------
     ethr =  1.46E-07,  avg # of iterations =  2.2

     total cpu time spent up to now is     3245.1 secs

     total energy              =  -12302.28602754 Ry
     estimated scf accuracy    <       0.00156319 Ry

     iteration #  7     ecut=   160.00 Ry     beta= 0.30
     Davidson diagonalization with overlap

---- Real-time Memory Report at c_bands before calling an iterative solver
          1719 MiB given to the printing process from OS
          1304 MiB allocation reported by mallinfo(arena+hblkhd)
        656686 MiB available memory on the node where the printing process lives
------------------
     ethr =  1.45E-07,  avg # of iterations =  2.0

     total cpu time spent up to now is     3578.8 secs

     total energy              =  -12302.28617489 Ry
     estimated scf accuracy    <       0.00005613 Ry

     iteration #  8     ecut=   160.00 Ry     beta= 0.30
     Davidson diagonalization with overlap

---- Real-time Memory Report at c_bands before calling an iterative solver
          1720 MiB given to the printing process from OS
          1304 MiB allocation reported by mallinfo(arena+hblkhd)
        656588 MiB available memory on the node where the printing process lives
------------------
     ethr =  5.20E-09,  avg # of iterations =  2.7

     total cpu time spent up to now is     3996.1 secs

     total energy              =  -12302.28618423 Ry
     estimated scf accuracy    <       0.00002231 Ry

     iteration #  9     ecut=   160.00 Ry     beta= 0.30
     Davidson diagonalization with overlap

---- Real-time Memory Report at c_bands before calling an iterative solver
          1722 MiB given to the printing process from OS
          1308 MiB allocation reported by mallinfo(arena+hblkhd)
        656572 MiB available memory on the node where the printing process lives
------------------
     ethr =  2.07E-09,  avg # of iterations =  2.0

     total cpu time spent up to now is     4346.7 secs

     total energy              =  -12302.28618594 Ry
     estimated scf accuracy    <       0.00000382 Ry

     iteration # 10     ecut=   160.00 Ry     beta= 0.30
     Davidson diagonalization with overlap

---- Real-time Memory Report at c_bands before calling an iterative solver
          1722 MiB given to the printing process from OS
          1308 MiB allocation reported by mallinfo(arena+hblkhd)
        656424 MiB available memory on the node where the printing process lives
------------------
     ethr =  3.53E-10,  avg # of iterations =  2.0

     total cpu time spent up to now is     4713.9 secs

     total energy              =  -12302.28618616 Ry
     estimated scf accuracy    <       0.00000071 Ry

     iteration # 11     ecut=   160.00 Ry     beta= 0.30
     Davidson diagonalization with overlap

---- Real-time Memory Report at c_bands before calling an iterative solver
          1722 MiB given to the printing process from OS
          1308 MiB allocation reported by mallinfo(arena+hblkhd)
        656379 MiB available memory on the node where the printing process lives
------------------
     ethr =  6.61E-11,  avg # of iterations =  2.0

     total cpu time spent up to now is     5066.1 secs

     total energy              =  -12302.28618626 Ry
     estimated scf accuracy    <       0.00000016 Ry

     iteration # 12     ecut=   160.00 Ry     beta= 0.30
     Davidson diagonalization with overlap

---- Real-time Memory Report at c_bands before calling an iterative solver
          1722 MiB given to the printing process from OS
          1308 MiB allocation reported by mallinfo(arena+hblkhd)
        656371 MiB available memory on the node where the printing process lives
------------------
     ethr =  1.46E-11,  avg # of iterations =  2.0

     total cpu time spent up to now is     5400.0 secs

     total energy              =  -12302.28618627 Ry
     estimated scf accuracy    <       0.00000003 Ry

     iteration # 13     ecut=   160.00 Ry     beta= 0.30
     Davidson diagonalization with overlap

---- Real-time Memory Report at c_bands before calling an iterative solver
          1722 MiB given to the printing process from OS
          1308 MiB allocation reported by mallinfo(arena+hblkhd)
        656367 MiB available memory on the node where the printing process lives
------------------
     ethr =  2.68E-12,  avg # of iterations =  2.0

     total cpu time spent up to now is     5754.0 secs

     total energy              =  -12302.28618627 Ry
     estimated scf accuracy    <          8.2E-09 Ry

     iteration # 14     ecut=   160.00 Ry     beta= 0.30
     Davidson diagonalization with overlap

---- Real-time Memory Report at c_bands before calling an iterative solver
          1722 MiB given to the printing process from OS
          1308 MiB allocation reported by mallinfo(arena+hblkhd)
        656360 MiB available memory on the node where the printing process lives
------------------
     ethr =  7.60E-13,  avg # of iterations =  2.0

     total cpu time spent up to now is     6111.5 secs

     total energy              =  -12302.28618627 Ry
     estimated scf accuracy    <          8.3E-10 Ry

     iteration # 15     ecut=   160.00 Ry     beta= 0.30
     Davidson diagonalization with overlap

---- Real-time Memory Report at c_bands before calling an iterative solver
          1722 MiB given to the printing process from OS
          1308 MiB allocation reported by mallinfo(arena+hblkhd)
        656354 MiB available memory on the node where the printing process lives
------------------
     ethr =  1.00E-13,  avg # of iterations =  2.0

     total cpu time spent up to now is     6479.7 secs

     total energy              =  -12302.28618627 Ry
     estimated scf accuracy    <          1.8E-10 Ry

     iteration # 16     ecut=   160.00 Ry     beta= 0.30
     Davidson diagonalization with overlap

---- Real-time Memory Report at c_bands before calling an iterative solver
          1722 MiB given to the printing process from OS
          1308 MiB allocation reported by mallinfo(arena+hblkhd)
        656345 MiB available memory on the node where the printing process lives
------------------
     ethr =  1.00E-13,  avg # of iterations =  1.0

     total cpu time spent up to now is     6781.0 secs

     End of self-consistent calculation

          k = 0.0000 0.0000 0.0000 (554781 PWs)   bands (ev):

   -68.2859 -68.2855 -68.2851 -68.2849 -68.2847 -68.2846 -68.2846 -68.2846
   -68.2846 -68.2845 -68.2845 -68.2845 -68.2844 -68.2844 -68.2841 -68.2840
   -68.2838 -68.2835 -67.7455 -67.7452 -67.7450 -67.7447 -67.7445 -67.7445
   -67.7444 -67.7443 -67.7443 -67.7443 -67.7442 -67.7442 -67.7442 -67.7442
   -67.7442 -67.7440 -67.7440 -67.7439 -67.7439 -67.7439 -67.7438 -67.7438
   -67.7438 -67.7437 -67.7436 -67.7436 -67.7436 -67.7436 -67.7435 -67.7435
   -67.7435 -67.7435 -67.7434 -67.7433 -67.7433 -67.7428 -35.6969 -35.6966
   -35.6961 -35.6960 -35.6957 -35.6957 -35.6957 -35.6957 -35.6956 -35.6955
   -35.6955 -35.6955 -35.6955 -35.6954 -35.6952 -35.6950 -35.6949 -35.6946
   -35.6920 -35.6920 -35.6917 -35.6917 -35.6913 -35.6912 -35.6911 -35.6911
   -35.6908 -35.6908 -35.6908 -35.6908 -35.6908 -35.6908 -35.6907 -35.6907
   -35.6907 -35.6907 -35.6906 -35.6906 -35.6906 -35.6906 -35.6906 -35.6906
   -35.6906 -35.6905 -35.6905 -35.6905 -35.6903 -35.6903 -35.6902 -35.6901
   -35.6900 -35.6899 -35.6897 -35.6896 -35.1782 -35.1781 -35.1778 -35.1778
   -35.1777 -35.1777 -35.1777 -35.1776 -35.1774 -35.1773 -35.1773 -35.1773
   -35.1772 -35.1772 -35.1772 -35.1772 -35.1772 -35.1772 -35.1772 -35.1772
   -35.1771 -35.1771 -35.1771 -35.1771 -35.1771 -35.1771 -35.1771 -35.1771
   -35.1768 -35.1768 -35.1767 -35.1767 -35.1767 -35.1767 -35.1765 -35.1765
   -35.1765 -35.1765 -35.1765 -35.1765 -35.1757 -35.1757 -35.1755 -35.1755
   -35.1753 -35.1753 -35.1753 -35.1753 -35.1753 -35.1753 -35.1753 -35.1753
   -35.1739 -35.1736 -35.1713 -35.1711 -35.1709 -35.1709 -35.1709 -35.1708
   -35.1707 -35.1707 -35.1705 -35.1705 -35.1705 -35.1705 -35.1705 -35.1705
   -35.1704 -35.1704 -35.1703 -35.1701 -35.1701 -35.1701 -35.1696 -35.1696
   -35.1694 -35.1693 -35.1692 -35.1692 -35.1692 -35.1691 -35.1691 -35.1691
   -35.1691 -35.1691 -35.1687 -35.1687 -35.1686 -35.1684 -35.1684 -35.1683
   -35.1683 -35.1683 -35.1683 -35.1682 -35.1682 -35.1682 -35.1681 -35.1681
   -35.1681 -35.1681 -35.1680 -35.1680 -35.1680 -35.1680 -35.1680 -35.1676
   -14.2178 -14.2174 -14.2163 -14.2162 -14.2161 -14.2160 -14.2157 -14.2156
   -14.2156 -14.2155 -14.2153 -14.2153 -14.2147 -14.2145 -14.2137 -14.2134
   -14.2127 -14.2126 -14.2120 -14.2119 -14.2112 -14.2111 -14.2101 -14.2100
   -14.2098 -14.2098 -14.2097 -14.2097 -14.2096 -14.2096 -14.2095 -14.2095
   -14.2094 -14.2094 -14.2094 -14.2093 -14.2093 -14.2093 -14.2093 -14.2092
   -14.2091 -14.2091 -14.2091 -14.2090 -14.2089 -14.2088 -14.2087 -14.2086
   -14.2084 -14.2083 -14.2083 -14.2080 -14.2078 -14.2077 -14.2072 -14.2072
   -14.2057 -14.2054 -14.2052 -14.2052 -14.2051 -14.2051 -14.2048 -14.2048
   -14.2044 -14.2044 -14.2043 -14.2043 -14.2039 -14.2038 -14.2031 -14.2029
   -14.1902 -14.1888 -14.1884 -14.1879 -14.1878 -14.1877 -14.1876 -14.1874
   -14.1869 -14.1867 -14.1866 -14.1866 -14.1865 -14.1864 -14.1862 -14.1858
   -14.1850 -14.1844 -14.1841 -14.1840 -14.1839 -14.1838 -14.1838 -14.1837
   -14.1836 -14.1836 -14.1835 -14.1834 -14.1834 -14.1833 -14.1832 -14.1832
   -14.1831 -14.1830 -14.1825 -14.1807 -14.1751 -14.1750 -14.1740 -14.1740
   -14.1733 -14.1732 -14.1721 -14.1720 -14.1714 -14.1713 -14.1713 -14.1712
   -14.1711 -14.1710 -14.1707 -14.1707 -14.1705 -14.1705 -14.1705 -14.1705
   -14.1704 -14.1704 -14.1702 -14.1701 -14.1701 -14.1700 -14.1697 -14.1697
   -14.1696 -14.1694 -14.1691 -14.1690 -14.1650 -14.1650 -14.1643 -14.1642
   -14.1639 -14.1639 -14.1637 -14.1636 -14.1635 -14.1635 -14.1634 -14.1633
   -14.1632 -14.1631 -14.1630 -14.1630 -14.1629 -14.1628 -14.1624 -14.1623
   -14.1602 -14.1602 -14.1599 -14.1598 -14.1592 -14.1592 -14.1584 -14.1582
   -14.1580 -14.1579 -14.1578 -14.1577 -14.1575 -14.1574 -14.1569 -14.1569
   -14.1568 -14.1566 -14.1561 -14.1560  -3.7274  -3.4528  -3.1821  -3.1814
    -3.1813  -3.1813  -3.1811  -3.1805  -3.1333  -2.9845  -2.9838  -2.9838
    -2.9837  -2.9836  -2.9830  -2.7858  -2.7851  -2.7850  -2.7849  -2.7848
    -2.7840  -2.7370  -2.6534  -2.6527  -2.6526  -2.6521  -2.6414  -2.6408
    -2.6406  -2.6401  -2.5522  -2.5516  -2.5514  -2.5514  -2.5513  -2.5505
     2.9725   3.4957   3.4958   3.4959   3.4960   3.4961   3.4961   3.5757
     3.5758   3.6377   3.6380   3.6383   3.6385   3.7566   3.7571   3.7572
     3.7574   3.7575   3.7577   3.8445   3.8448   3.8449   3.8450   3.8453
     3.8456   3.9015   3.9016   3.9892   3.9893   3.9895   3.9896   3.9898
     3.9911   4.3239   4.3246   4.3251   4.3252   4.5249   4.7003   4.7009
     4.7010   4.7012   4.7014   4.7015   4.7408   4.7410   4.7897   5.3975
     5.3978   5.3981   5.3987   5.5460   5.5461   5.9281   5.9285   5.9287
     5.9287   5.9289   5.9291   6.0119   6.0120   6.0122   6.0123   6.0126
     6.0133   6.3263   6.3263   6.3266   6.3267   6.3268   6.3274   6.3491
     6.3496   6.3497   6.3498   6.3499   6.3500   6.6928   6.6932   6.6934
     6.6935   6.6937   6.6939   6.7786   6.7788   6.7789   6.7791   6.7796
     6.7801   7.0099   7.0103   7.0936   7.0938   7.0941   7.0943   7.3699
     7.3704   7.3756   7.3759   7.4266   7.4271   7.4273   7.4274   7.4276
     7.4277   7.7580   7.7583   7.9799   8.0331   8.2486   8.2490   8.5199
     8.5200   8.5201   8.5203   8.5203   8.5206   8.6128   8.6130   8.6132
     8.6133   8.6134   8.6136   8.9076   9.2272   9.4269   9.4435   9.4439
     9.4441   9.4442   9.4443   9.4453   9.5362   9.5365   9.5367   9.5370
     9.8013   9.8017   9.8019   9.8020   9.8021   9.8022  10.4637  10.4641
    10.4779  10.4782  10.4782  10.4784  10.4788  10.4798  10.4940  10.4941
    10.4942  10.4943  10.4944  10.4945  10.6763  10.6763  10.7977  10.7978
    10.9051  10.9061  10.9062  10.9063  10.9064  10.9065  11.0448  11.0450
    11.0450  11.0453  11.0457  11.0464  11.2114  11.2116  11.5710  11.6923
    11.6929  11.8865  12.0803  12.0807  12.0807  12.0808  12.0809  12.0814
    12.1597  12.1599  12.2243  12.2701  12.2702  12.2704  12.2707  12.3517
    12.3517  12.4839  12.4841  12.4842  12.4844  12.4848  12.4855  12.5789
    12.7698  12.7700  12.7701  12.7702  12.7943  12.7952  12.7954  12.7954
    12.7955  12.7957  13.0522  13.0524  13.1214  13.1216  13.1216  13.1218

     occupation numbers 
     1.0000   1.0000   1.0000   1.0000   1.0000   1.0000   1.0000   1.0000
     1.0000   1.0000   1.0000   1.0000   1.0000   1.0000   1.0000   1.0000
     1.0000   1.0000   1.0000   1.0000   1.0000   1.0000   1.0000   1.0000
     1.0000   1.0000   1.0000   1.0000   1.0000   1.0000   1.0000   1.0000
     1.0000   1.0000   1.0000   1.0000   1.0000   1.0000   1.0000   1.0000
     1.0000   1.0000   1.0000   1.0000   1.0000   1.0000   1.0000   1.0000
     1.0000   1.0000   1.0000   1.0000   1.0000   1.0000   1.0000   1.0000
     1.0000   1.0000   1.0000   1.0000   1.0000   1.0000   1.0000   1.0000
     1.0000   1.0000   1.0000   1.0000   1.0000   1.0000   1.0000   1.0000
     1.0000   1.0000   1.0000   1.0000   1.0000   1.0000   1.0000   1.0000
     1.0000   1.0000   1.0000   1.0000   1.0000   1.0000   1.0000   1.0000
     1.0000   1.0000   1.0000   1.0000   1.0000   1.0000   1.0000   1.0000
     1.0000   1.0000   1.0000   1.0000   1.0000   1.0000   1.0000   1.0000
     1.0000   1.0000   1.0000   1.0000   1.0000   1.0000   1.0000   1.0000
     1.0000   1.0000   1.0000   1.0000   1.0000   1.0000   1.0000   1.0000
     1.0000   1.0000   1.0000   1.0000   1.0000   1.0000   1.0000   1.0000
     1.0000   1.0000   1.0000   1.0000   1.0000   1.0000   1.0000   1.0000
     1.0000   1.0000   1.0000   1.0000   1.0000   1.0000   1.0000   1.0000
     1.0000   1.0000   1.0000   1.0000   1.0000   1.0000   1.0000   1.0000
     1.0000   1.0000   1.0000   1.0000   1.0000   1.0000   1.0000   1.0000
     1.0000   1.0000   1.0000   1.0000   1.0000   1.0000   1.0000   1.0000
     1.0000   1.0000   1.0000   1.0000   1.0000   1.0000   1.0000   1.0000
     1.0000   1.0000   1.0000   1.0000   1.0000   1.0000   1.0000   1.0000
     1.0000   1.0000   1.0000   1.0000   1.0000   1.0000   1.0000   1.0000
     1.0000   1.0000   1.0000   1.0000   1.0000   1.0000   1.0000   1.0000
     1.0000   1.0000   1.0000   1.0000   1.0000   1.0000   1.0000   1.0000
     1.0000   1.0000   1.0000   1.0000   1.0000   1.0000   1.0000   1.0000
     1.0000   1.0000   1.0000   1.0000   1.0000   1.0000   1.0000   1.0000
     1.0000   1.0000   1.0000   1.0000   1.0000   1.0000   1.0000   1.0000
     1.0000   1.0000   1.0000   1.0000   1.0000   1.0000   1.0000   1.0000
     1.0000   1.0000   1.0000   1.0000   1.0000   1.0000   1.0000   1.0000
     1.0000   1.0000   1.0000   1.0000   1.0000   1.0000   1.0000   1.0000
     1.0000   1.0000   1.0000   1.0000   1.0000   1.0000   1.0000   1.0000
     1.0000   1.0000   1.0000   1.0000   1.0000   1.0000   1.0000   1.0000
     1.0000   1.0000   1.0000   1.0000   1.0000   1.0000   1.0000   1.0000
     1.0000   1.0000   1.0000   1.0000   1.0000   1.0000   1.0000   1.0000
     1.0000   1.0000   1.0000   1.0000   1.0000   1.0000   1.0000   1.0000
     1.0000   1.0000   1.0000   1.0000   1.0000   1.0000   1.0000   1.0000
     1.0000   1.0000   1.0000   1.0000   1.0000   1.0000   1.0000   1.0000
     1.0000   1.0000   1.0000   1.0000   1.0000   1.0000   1.0000   1.0000
     1.0000   1.0000   1.0000   1.0000   1.0000   1.0000   1.0000   1.0000
     1.0000   1.0000   1.0000   1.0000   1.0000   1.0000   1.0000   1.0000
     1.0000   1.0000   1.0000   1.0000   1.0000   1.0000   1.0000   1.0000
     1.0000   1.0000   1.0000   1.0000   1.0000   1.0000   1.0000   1.0000
     1.0000   1.0000   1.0000   1.0000   1.0000   1.0000   1.0000   1.0000
     1.0000   1.0000   1.0000   1.0000   1.0000   1.0000   1.0000   1.0000
     1.0000   1.0000   1.0000   1.0000   1.0000   1.0000   1.0000   1.0000
     1.0000   1.0000   1.0000   1.0000   1.0000   1.0000   1.0000   1.0000
     1.0000   1.0000   1.0000   1.0000   1.0000   1.0000   1.0000   1.0000
     1.0000   1.0000   1.0000   1.0000   1.0000   1.0000   1.0000   1.0000
     1.0000   1.0000   1.0000   1.0000   1.0000   1.0000   1.0000   1.0000
     1.0000   1.0000   1.0000   1.0000   1.0000   1.0000   1.0000   1.0000
     1.0000   1.0000   1.0000   1.0000   1.0000   1.0000   1.0000   1.0000
     1.0000   1.0000   1.0000   1.0000   1.0000   1.0000   1.0000   1.0000
     1.0000   1.0000   1.0000   1.0000   1.0000   1.0000   1.0000   1.0000
     1.0000   1.0000   1.0000   1.0000   1.0000   1.0000   1.0000   1.0000
     1.0000   1.0000   1.0000   1.0000   1.0000   1.0000   1.0000   1.0000
     1.0000   1.0000   1.0000   1.0000   1.0000   1.0000   1.0000   1.0000
     1.0000   1.0000   1.0000   1.0000   1.0000   1.0000   1.0000   1.0000
     1.0000   1.0000   1.0000   1.0000   1.0000   1.0000   1.0000   1.0000
     1.0000   1.0000   1.0000   1.0000   1.0000   1.0000   1.0000   1.0000
     1.0000   1.0000   1.0000   1.0000   1.0000   1.0000   1.0000   1.0000
     1.0000   1.0000   1.0000   1.0000   1.0000   1.0000   1.0000   1.0000
     1.0000   1.0000   1.0000   1.0000   1.0000   1.0000   1.0000   1.0000
     1.0000   1.0000   1.0000   1.0000   1.0000   1.0000   1.0000   1.0000
     1.0000   1.0000   1.0000   1.0000   1.0000   1.0000   1.0000   1.0000
     1.0000   1.0000   1.0000   1.0000   1.0000   1.0000   1.0000   1.0000
     1.0000   1.0223   1.0224   0.4886   0.1865  -0.0083  -0.0082  -0.0000
    -0.0000  -0.0000  -0.0000  -0.0000  -0.0000  -0.0000  -0.0000  -0.0000
    -0.0000  -0.0000  -0.0000  -0.0000  -0.0000  -0.0000  -0.0000  -0.0000
    -0.0000  -0.0000  -0.0000  -0.0000  -0.0000  -0.0000  -0.0000  -0.0000
    -0.0000  -0.0000  -0.0000  -0.0000  -0.0000  -0.0000  -0.0000  -0.0000
    -0.0000  -0.0000  -0.0000  -0.0000  -0.0000  -0.0000  -0.0000  -0.0000
    -0.0000  -0.0000  -0.0000  -0.0000  -0.0000  -0.0000  -0.0000  -0.0000
    -0.0000  -0.0000  -0.0000  -0.0000  -0.0000  -0.0000  -0.0000  -0.0000
    -0.0000  -0.0000  -0.0000  -0.0000  -0.0000  -0.0000  -0.0000  -0.0000
    -0.0000  -0.0000  -0.0000  -0.0000  -0.0000  -0.0000  -0.0000  -0.0000
    -0.0000  -0.0000  -0.0000  -0.0000  -0.0000  -0.0000  -0.0000  -0.0000
    -0.0000  -0.0000  -0.0000  -0.0000  -0.0000  -0.0000  -0.0000  -0.0000
    -0.0000  -0.0000  -0.0000  -0.0000  -0.0000  -0.0000  -0.0000  -0.0000
    -0.0000  -0.0000  -0.0000  -0.0000  -0.0000  -0.0000  -0.0000  -0.0000

          k = 0.0000 0.0000 0.2373 (554553 PWs)   bands (ev):

   -68.2859 -68.2855 -68.2851 -68.2849 -68.2847 -68.2846 -68.2846 -68.2846
   -68.2846 -68.2845 -68.2845 -68.2845 -68.2844 -68.2844 -68.2841 -68.2840
   -68.2838 -68.2835 -67.7455 -67.7452 -67.7450 -67.7447 -67.7445 -67.7445
   -67.7444 -67.7443 -67.7443 -67.7443 -67.7442 -67.7442 -67.7442 -67.7442
   -67.7442 -67.7440 -67.7440 -67.7439 -67.7439 -67.7439 -67.7438 -67.7438
   -67.7438 -67.7437 -67.7436 -67.7436 -67.7436 -67.7436 -67.7435 -67.7435
   -67.7435 -67.7435 -67.7434 -67.7433 -67.7433 -67.7428 -35.6969 -35.6966
   -35.6961 -35.6960 -35.6957 -35.6957 -35.6957 -35.6957 -35.6956 -35.6955
   -35.6955 -35.6955 -35.6955 -35.6954 -35.6952 -35.6950 -35.6949 -35.6946
   -35.6920 -35.6920 -35.6917 -35.6917 -35.6913 -35.6912 -35.6911 -35.6911
   -35.6908 -35.6908 -35.6908 -35.6908 -35.6908 -35.6908 -35.6907 -35.6907
   -35.6907 -35.6907 -35.6906 -35.6906 -35.6906 -35.6906 -35.6906 -35.6906
   -35.6906 -35.6905 -35.6905 -35.6905 -35.6903 -35.6903 -35.6902 -35.6901
   -35.6900 -35.6899 -35.6897 -35.6896 -35.1782 -35.1781 -35.1778 -35.1778
   -35.1777 -35.1777 -35.1777 -35.1776 -35.1774 -35.1773 -35.1773 -35.1773
   -35.1772 -35.1772 -35.1772 -35.1772 -35.1772 -35.1772 -35.1772 -35.1772
   -35.1771 -35.1771 -35.1771 -35.1771 -35.1771 -35.1771 -35.1771 -35.1771
   -35.1768 -35.1768 -35.1767 -35.1767 -35.1767 -35.1767 -35.1765 -35.1765
   -35.1765 -35.1765 -35.1765 -35.1765 -35.1757 -35.1757 -35.1755 -35.1755
   -35.1753 -35.1753 -35.1753 -35.1753 -35.1753 -35.1753 -35.1753 -35.1753
   -35.1739 -35.1736 -35.1713 -35.1711 -35.1709 -35.1709 -35.1709 -35.1708
   -35.1707 -35.1707 -35.1705 -35.1705 -35.1705 -35.1705 -35.1705 -35.1705
   -35.1704 -35.1704 -35.1703 -35.1701 -35.1701 -35.1701 -35.1696 -35.1696
   -35.1694 -35.1693 -35.1692 -35.1692 -35.1692 -35.1691 -35.1691 -35.1691
   -35.1691 -35.1691 -35.1687 -35.1687 -35.1686 -35.1684 -35.1684 -35.1683
   -35.1683 -35.1683 -35.1683 -35.1682 -35.1682 -35.1682 -35.1681 -35.1681
   -35.1681 -35.1681 -35.1680 -35.1680 -35.1680 -35.1680 -35.1680 -35.1676
   -14.2178 -14.2174 -14.2165 -14.2163 -14.2162 -14.2160 -14.2157 -14.2156
   -14.2155 -14.2153 -14.2152 -14.2151 -14.2145 -14.2143 -14.2135 -14.2133
   -14.2129 -14.2129 -14.2122 -14.2121 -14.2113 -14.2112 -14.2102 -14.2101
   -14.2100 -14.2099 -14.2098 -14.2097 -14.2097 -14.2096 -14.2095 -14.2095
   -14.2094 -14.2094 -14.2093 -14.2093 -14.2093 -14.2092 -14.2092 -14.2091
   -14.2091 -14.2090 -14.2089 -14.2089 -14.2088 -14.2087 -14.2087 -14.2086
   -14.2085 -14.2083 -14.2080 -14.2078 -14.2077 -14.2076 -14.2072 -14.2072
   -14.2059 -14.2058 -14.2056 -14.2052 -14.2051 -14.2050 -14.2047 -14.2046
   -14.2044 -14.2043 -14.2043 -14.2041 -14.2038 -14.2038 -14.2031 -14.2029
   -14.1902 -14.1887 -14.1884 -14.1879 -14.1877 -14.1876 -14.1875 -14.1873
   -14.1869 -14.1869 -14.1868 -14.1868 -14.1866 -14.1865 -14.1863 -14.1859
   -14.1850 -14.1843 -14.1841 -14.1840 -14.1838 -14.1837 -14.1837 -14.1837
   -14.1836 -14.1836 -14.1835 -14.1835 -14.1834 -14.1833 -14.1832 -14.1832
   -14.1831 -14.1830 -14.1825 -14.1807 -14.1751 -14.1750 -14.1740 -14.1740
   -14.1732 -14.1731 -14.1721 -14.1720 -14.1716 -14.1715 -14.1713 -14.1712
   -14.1711 -14.1710 -14.1709 -14.1707 -14.1706 -14.1706 -14.1706 -14.1705
   -14.1704 -14.1704 -14.1702 -14.1702 -14.1701 -14.1699 -14.1697 -14.1696
   -14.1696 -14.1692 -14.1690 -14.1689 -14.1650 -14.1649 -14.1643 -14.1642
   -14.1640 -14.1639 -14.1638 -14.1637 -14.1637 -14.1636 -14.1635 -14.1635
   -14.1635 -14.1631 -14.1629 -14.1628 -14.1627 -14.1626 -14.1623 -14.1622
   -14.1601 -14.1600 -14.1597 -14.1596 -14.1592 -14.1592 -14.1585 -14.1584
   -14.1580 -14.1579 -14.1578 -14.1576 -14.1574 -14.1573 -14.1571 -14.1570
   -14.1569 -14.1567 -14.1561 -14.1560  -3.7014  -3.5216  -3.1637  -3.1633
    -3.1630  -3.1615  -3.1613  -3.1608  -3.0475  -3.0354  -3.0350  -3.0347
    -3.0309  -3.0307  -3.0303  -2.7817  -2.7338  -2.7334  -2.7330  -2.7281
    -2.7278  -2.7274  -2.6517  -2.6510  -2.6508  -2.6504  -2.6431  -2.6425
    -2.6424  -2.6419  -2.5778  -2.5774  -2.5771  -2.5744  -2.5741  -2.5736
     3.0926   3.4124   3.4125   3.4126   3.5334   3.5336   3.5337   3.5561
     3.5562   3.5564   3.6095   3.6096   3.7034   3.7037   3.7040   3.7043
     3.7139   3.7141   3.7144   3.8307   3.8308   3.8646   3.8648   3.8650
     3.9653   4.0190   4.0193   4.0195   4.0581   4.0583   4.0585   4.1566
     4.1571   4.1575   4.1577   4.2762   4.2764   4.2768   4.6579   4.6581
     4.6582   4.6983   4.6986   4.6987   4.8672   4.8675   5.4219   5.4220
     5.4552   5.4683   5.4685   5.4688   5.5518   5.5519   5.5523   5.6662
     5.6664   5.6667   5.6671   5.9587   5.9589   5.9591   5.9707   5.9708
     5.9710   6.2148   6.2150   6.2151   6.2445   6.2447   6.2448   6.7626
     6.7627   6.7632   6.7846   6.7848   6.7852   6.7994   6.7996   6.7999
     6.8001   6.8293   6.8295   6.8297   6.8526   6.8530   6.8533   6.8766
     6.8768   6.8770   6.9165   6.9167   6.9171   7.0362   7.0366   7.1780
     7.2298   7.2302   7.3205   7.3207   7.3209   7.3553   7.3556   7.3557
     7.5196   7.5199   7.7290   7.7293   8.1376   8.1377   8.1378   8.4577
     8.4581   8.4768   8.4769   8.4770   8.6152   8.6985   8.6986   8.6987
     8.9174   8.9175   8.9175   9.0502   9.0823   9.1623   9.1626   9.1631
     9.4782   9.4782   9.4786   9.4922   9.5635   9.5638   9.5642   9.6527
     9.6529   9.6534   9.7230   9.7232   9.9175   9.9177   9.9179   9.9183
     9.9802   9.9803   9.9804  10.5294  10.5299  10.5299  10.5485  10.5487
    10.5489  10.8321  10.8322  11.0314  11.0318  11.0321  11.1086  11.1088
    11.1282  11.1285  11.1288  11.2754  11.2755  11.2756  11.2766  11.2770
    11.2773  11.4470  11.4472  11.5229  11.5230  11.5231  11.5713  11.6667
    11.6672  11.6673  11.6781  11.6786  11.6788  11.7117  11.7119  11.7121
    11.7124  11.7705  11.7711  11.8724  11.9831  11.9834  11.9838  12.1524
    12.1526  12.2985  12.3361  12.3362  12.3688  12.3851  12.3855  12.3857
    12.6987  12.6989  12.6991  12.7358  12.7359  12.7360  12.7361  13.0006
    13.0007  13.0008  13.0016  13.0029  13.0045  13.0141  13.0144  13.1318

     occupation numbers 
     1.0000   1.0000   1.0000   1.0000   1.0000   1.0000   1.0000   1.0000
     1.0000   1.0000   1.0000   1.0000   1.0000   1.0000   1.0000   1.0000
     1.0000   1.0000   1.0000   1.0000   1.0000   1.0000   1.0000   1.0000
     1.0000   1.0000   1.0000   1.0000   1.0000   1.0000   1.0000   1.0000
     1.0000   1.0000   1.0000   1.0000   1.0000   1.0000   1.0000   1.0000
     1.0000   1.0000   1.0000   1.0000   1.0000   1.0000   1.0000   1.0000
     1.0000   1.0000   1.0000   1.0000   1.0000   1.0000   1.0000   1.0000
     1.0000   1.0000   1.0000   1.0000   1.0000   1.0000   1.0000   1.0000
     1.0000   1.0000   1.0000   1.0000   1.0000   1.0000   1.0000   1.0000
     1.0000   1.0000   1.0000   1.0000   1.0000   1.0000   1.0000   1.0000
     1.0000   1.0000   1.0000   1.0000   1.0000   1.0000   1.0000   1.0000
     1.0000   1.0000   1.0000   1.0000   1.0000   1.0000   1.0000   1.0000
     1.0000   1.0000   1.0000   1.0000   1.0000   1.0000   1.0000   1.0000
     1.0000   1.0000   1.0000   1.0000   1.0000   1.0000   1.0000   1.0000
     1.0000   1.0000   1.0000   1.0000   1.0000   1.0000   1.0000   1.0000
     1.0000   1.0000   1.0000   1.0000   1.0000   1.0000   1.0000   1.0000
     1.0000   1.0000   1.0000   1.0000   1.0000   1.0000   1.0000   1.0000
     1.0000   1.0000   1.0000   1.0000   1.0000   1.0000   1.0000   1.0000
     1.0000   1.0000   1.0000   1.0000   1.0000   1.0000   1.0000   1.0000
     1.0000   1.0000   1.0000   1.0000   1.0000   1.0000   1.0000   1.0000
     1.0000   1.0000   1.0000   1.0000   1.0000   1.0000   1.0000   1.0000
     1.0000   1.0000   1.0000   1.0000   1.0000   1.0000   1.0000   1.0000
     1.0000   1.0000   1.0000   1.0000   1.0000   1.0000   1.0000   1.0000
     1.0000   1.0000   1.0000   1.0000   1.0000   1.0000   1.0000   1.0000
     1.0000   1.0000   1.0000   1.0000   1.0000   1.0000   1.0000   1.0000
     1.0000   1.0000   1.0000   1.0000   1.0000   1.0000   1.0000   1.0000
     1.0000   1.0000   1.0000   1.0000   1.0000   1.0000   1.0000   1.0000
     1.0000   1.0000   1.0000   1.0000   1.0000   1.0000   1.0000   1.0000
     1.0000   1.0000   1.0000   1.0000   1.0000   1.0000   1.0000   1.0000
     1.0000   1.0000   1.0000   1.0000   1.0000   1.0000   1.0000   1.0000
     1.0000   1.0000   1.0000   1.0000   1.0000   1.0000   1.0000   1.0000
     1.0000   1.0000   1.0000   1.0000   1.0000   1.0000   1.0000   1.0000
     1.0000   1.0000   1.0000   1.0000   1.0000   1.0000   1.0000   1.0000
     1.0000   1.0000   1.0000   1.0000   1.0000   1.0000   1.0000   1.0000
     1.0000   1.0000   1.0000   1.0000   1.0000   1.0000   1.0000   1.0000
     1.0000   1.0000   1.0000   1.0000   1.0000   1.0000   1.0000   1.0000
     1.0000   1.0000   1.0000   1.0000   1.0000   1.0000   1.0000   1.0000
     1.0000   1.0000   1.0000   1.0000   1.0000   1.0000   1.0000   1.0000
     1.0000   1.0000   1.0000   1.0000   1.0000   1.0000   1.0000   1.0000
     1.0000   1.0000   1.0000   1.0000   1.0000   1.0000   1.0000   1.0000
     1.0000   1.0000   1.0000   1.0000   1.0000   1.0000   1.0000   1.0000
     1.0000   1.0000   1.0000   1.0000   1.0000   1.0000   1.0000   1.0000
     1.0000   1.0000   1.0000   1.0000   1.0000   1.0000   1.0000   1.0000
     1.0000   1.0000   1.0000   1.0000   1.0000   1.0000   1.0000   1.0000
     1.0000   1.0000   1.0000   1.0000   1.0000   1.0000   1.0000   1.0000
     1.0000   1.0000   1.0000   1.0000   1.0000   1.0000   1.0000   1.0000
     1.0000   1.0000   1.0000   1.0000   1.0000   1.0000   1.0000   1.0000
     1.0000   1.0000   1.0000   1.0000   1.0000   1.0000   1.0000   1.0000
     1.0000   1.0000   1.0000   1.0000   1.0000   1.0000   1.0000   1.0000
     1.0000   1.0000   1.0000   1.0000   1.0000   1.0000   1.0000   1.0000
     1.0000   1.0000   1.0000   1.0000   1.0000   1.0000   1.0000   1.0000
     1.0000   1.0000   1.0000   1.0000   1.0000   1.0000   1.0000   1.0000
     1.0000   1.0000   1.0000   1.0000   1.0000   1.0000   1.0000   1.0000
     1.0000   1.0000   1.0000   1.0000   1.0000   1.0000   1.0000   1.0000
     1.0000   1.0000   1.0000   1.0000   1.0000   1.0000   1.0000   1.0000
     1.0000   1.0000   1.0000   1.0000   1.0000   1.0000   1.0000   1.0000
     1.0000   1.0000   1.0000   1.0000   1.0000   1.0000   1.0000   1.0000
     1.0000   1.0000   1.0000   1.0000   1.0000   1.0000   1.0000   1.0000
     1.0000   1.0000   1.0000   1.0000   1.0000   1.0000   1.0000   1.0000
     1.0000   1.0000   1.0000   1.0000   1.0000   1.0000   1.0000   1.0000
     1.0000   1.0000   1.0000   1.0000   1.0000   1.0000   1.0000   1.0000
     1.0000   1.0000   1.0000   1.0000   1.0000   1.0000   1.0000   1.0000
     1.0000   1.0000   1.0000   1.0000   1.0000   1.0000   1.0000   1.0000
     1.0000   1.0000   1.0000   1.0000   1.0000   1.0000   1.0000   1.0000
     1.0000   1.0000   1.0000   1.0000   1.0000   1.0000   1.0000   1.0000
     1.0000   1.0000   1.0000   1.0000   1.0000   1.0000   1.0000   1.0000
     1.0000   1.0000   1.0000   1.0000   1.0000   1.0000   1.0000   1.0000
     1.0000   1.0000   1.0133   1.0134  -0.0350  -0.0350  -0.0350  -0.0000
    -0.0000  -0.0000  -0.0000  -0.0000  -0.0000  -0.0000  -0.0000  -0.0000
    -0.0000  -0.0000  -0.0000  -0.0000  -0.0000  -0.0000  -0.0000  -0.0000
    -0.0000  -0.0000  -0.0000  -0.0000  -0.0000  -0.0000  -0.0000  -0.0000
    -0.0000  -0.0000  -0.0000  -0.0000  -0.0000  -0.0000  -0.0000  -0.0000
    -0.0000  -0.0000  -0.0000  -0.0000  -0.0000  -0.0000  -0.0000  -0.0000
    -0.0000  -0.0000  -0.0000  -0.0000  -0.0000  -0.0000  -0.0000  -0.0000
    -0.0000  -0.0000  -0.0000  -0.0000  -0.0000  -0.0000  -0.0000  -0.0000
    -0.0000  -0.0000  -0.0000  -0.0000  -0.0000  -0.0000  -0.0000  -0.0000
    -0.0000  -0.0000  -0.0000  -0.0000  -0.0000  -0.0000  -0.0000  -0.0000
    -0.0000  -0.0000  -0.0000  -0.0000  -0.0000  -0.0000  -0.0000  -0.0000
    -0.0000  -0.0000  -0.0000  -0.0000  -0.0000  -0.0000  -0.0000  -0.0000
    -0.0000  -0.0000  -0.0000  -0.0000  -0.0000  -0.0000  -0.0000  -0.0000
    -0.0000  -0.0000  -0.0000  -0.0000  -0.0000  -0.0000  -0.0000  -0.0000

          k = 0.0000 0.0000-0.4746 (554414 PWs)   bands (ev):

   -68.2859 -68.2855 -68.2851 -68.2849 -68.2847 -68.2846 -68.2846 -68.2846
   -68.2846 -68.2845 -68.2845 -68.2845 -68.2844 -68.2844 -68.2841 -68.2840
   -68.2838 -68.2835 -67.7455 -67.7452 -67.7450 -67.7447 -67.7445 -67.7445
   -67.7444 -67.7443 -67.7443 -67.7443 -67.7442 -67.7442 -67.7442 -67.7442
   -67.7442 -67.7440 -67.7440 -67.7439 -67.7439 -67.7439 -67.7438 -67.7438
   -67.7438 -67.7437 -67.7436 -67.7436 -67.7436 -67.7436 -67.7435 -67.7435
   -67.7435 -67.7435 -67.7434 -67.7433 -67.7433 -67.7428 -35.6969 -35.6966
   -35.6961 -35.6960 -35.6957 -35.6957 -35.6957 -35.6957 -35.6956 -35.6955
   -35.6955 -35.6955 -35.6955 -35.6954 -35.6952 -35.6950 -35.6949 -35.6946
   -35.6920 -35.6920 -35.6917 -35.6917 -35.6913 -35.6912 -35.6911 -35.6911
   -35.6908 -35.6908 -35.6908 -35.6908 -35.6908 -35.6908 -35.6907 -35.6907
   -35.6907 -35.6907 -35.6906 -35.6906 -35.6906 -35.6906 -35.6906 -35.6906
   -35.6906 -35.6905 -35.6905 -35.6905 -35.6903 -35.6903 -35.6902 -35.6901
   -35.6900 -35.6899 -35.6897 -35.6896 -35.1782 -35.1781 -35.1778 -35.1778
   -35.1777 -35.1777 -35.1777 -35.1776 -35.1774 -35.1773 -35.1773 -35.1773
   -35.1772 -35.1772 -35.1772 -35.1772 -35.1772 -35.1772 -35.1772 -35.1772
   -35.1771 -35.1771 -35.1771 -35.1771 -35.1771 -35.1771 -35.1771 -35.1771
   -35.1768 -35.1768 -35.1767 -35.1767 -35.1767 -35.1767 -35.1765 -35.1765
   -35.1765 -35.1765 -35.1765 -35.1765 -35.1757 -35.1757 -35.1755 -35.1755
   -35.1753 -35.1753 -35.1753 -35.1753 -35.1753 -35.1753 -35.1753 -35.1753
   -35.1739 -35.1736 -35.1713 -35.1711 -35.1709 -35.1709 -35.1709 -35.1708
   -35.1707 -35.1707 -35.1705 -35.1705 -35.1705 -35.1705 -35.1705 -35.1705
   -35.1704 -35.1704 -35.1703 -35.1701 -35.1701 -35.1701 -35.1696 -35.1696
   -35.1694 -35.1693 -35.1692 -35.1692 -35.1692 -35.1691 -35.1691 -35.1691
   -35.1691 -35.1691 -35.1687 -35.1687 -35.1686 -35.1684 -35.1684 -35.1683
   -35.1683 -35.1683 -35.1683 -35.1682 -35.1682 -35.1682 -35.1681 -35.1681
   -35.1681 -35.1681 -35.1680 -35.1680 -35.1680 -35.1680 -35.1680 -35.1676
   -14.2178 -14.2175 -14.2165 -14.2165 -14.2163 -14.2161 -14.2156 -14.2155
   -14.2153 -14.2152 -14.2151 -14.2149 -14.2142 -14.2140 -14.2134 -14.2134
   -14.2133 -14.2130 -14.2125 -14.2124 -14.2114 -14.2112 -14.2103 -14.2101
   -14.2100 -14.2099 -14.2099 -14.2098 -14.2098 -14.2096 -14.2096 -14.2095
   -14.2095 -14.2095 -14.2094 -14.2093 -14.2093 -14.2093 -14.2092 -14.2091
   -14.2090 -14.2088 -14.2088 -14.2087 -14.2086 -14.2085 -14.2085 -14.2084
   -14.2082 -14.2082 -14.2081 -14.2080 -14.2079 -14.2078 -14.2072 -14.2072
   -14.2059 -14.2057 -14.2056 -14.2055 -14.2053 -14.2052 -14.2045 -14.2044
   -14.2042 -14.2042 -14.2041 -14.2041 -14.2040 -14.2039 -14.2032 -14.2029
   -14.1902 -14.1887 -14.1885 -14.1878 -14.1876 -14.1874 -14.1872 -14.1871
   -14.1871 -14.1871 -14.1870 -14.1869 -14.1869 -14.1866 -14.1864 -14.1859
   -14.1850 -14.1843 -14.1840 -14.1839 -14.1838 -14.1836 -14.1836 -14.1836
   -14.1836 -14.1836 -14.1835 -14.1835 -14.1834 -14.1833 -14.1832 -14.1832
   -14.1831 -14.1830 -14.1825 -14.1807 -14.1751 -14.1750 -14.1740 -14.1740
   -14.1731 -14.1730 -14.1719 -14.1719 -14.1718 -14.1717 -14.1713 -14.1712
   -14.1711 -14.1709 -14.1709 -14.1708 -14.1707 -14.1706 -14.1706 -14.1705
   -14.1705 -14.1704 -14.1704 -14.1703 -14.1701 -14.1699 -14.1695 -14.1695
   -14.1693 -14.1692 -14.1690 -14.1688 -14.1650 -14.1649 -14.1643 -14.1641
   -14.1640 -14.1640 -14.1639 -14.1638 -14.1638 -14.1637 -14.1637 -14.1636
   -14.1636 -14.1632 -14.1628 -14.1627 -14.1626 -14.1625 -14.1622 -14.1621
   -14.1601 -14.1599 -14.1594 -14.1593 -14.1592 -14.1592 -14.1587 -14.1586
   -14.1580 -14.1578 -14.1576 -14.1576 -14.1574 -14.1572 -14.1571 -14.1570
   -14.1570 -14.1569 -14.1562 -14.1561  -3.6276  -3.6267  -3.1116  -3.1106
    -3.1103  -3.1102  -3.1100  -3.1096  -3.1072  -3.1068  -3.1065  -3.1064
    -3.1062  -3.1054  -2.9002  -2.8993  -2.6492  -2.6472  -2.6469  -2.6467
    -2.6466  -2.6465  -2.6465  -2.6460  -2.6456  -2.6453  -2.6451  -2.6450
    -2.6446  -2.6439  -2.6402  -2.6398  -2.6396  -2.6395  -2.6392  -2.6383
     3.4139   3.4144   3.4144   3.4145   3.4148   3.4153   3.4365   3.4371
     3.5900   3.5903   3.5905   3.5906   3.5908   3.5915   3.7038   3.7040
     3.7049   3.7049   3.8902   3.8912   3.8915   3.8917   3.8918   3.8920
     3.8922   3.8925   4.0437   4.0440   4.0444   4.0447   4.0447   4.0452
     4.2465   4.2469   4.2471   4.2472   4.2474   4.2478   4.9151   4.9154
     4.9155   4.9157   4.9159   4.9166   4.9949   4.9953   4.9953   4.9953
     4.9955   4.9957   5.1436   5.1439   5.1447   5.1447   6.0582   6.0585
     6.0587   6.0590   6.0591   6.0594   6.0811   6.0817   6.0819   6.0820
     6.0822   6.0824   6.2183   6.2187   6.2189   6.2190   6.2191   6.2192
     6.2194   6.2202   6.3032   6.3033   7.0147   7.0151   7.0152   7.0152
     7.0153   7.0162   7.0198   7.0201   7.0203   7.0203   7.0207   7.0220
     7.0897   7.0905   7.0906   7.0908   7.0911   7.0912   7.1120   7.1126
     7.1131   7.1132   7.1411   7.1417   7.1417   7.1420   7.1422   7.1423
     7.6448   7.6454   7.6459   7.6460   8.1424   8.1426   8.1427   8.1428
     8.1430   8.1433   8.8699   8.8701   8.8703   8.8703   8.8704   8.8707
     8.8779   8.8782   8.9943   8.9944   8.9947   8.9952   9.1914   9.1917
     9.1920   9.1921   9.1924   9.1934   9.3826   9.3832   9.4869   9.4870
     9.4873   9.4875   9.4876   9.4883  10.1814  10.1817  10.1819  10.1820
    10.1822  10.1827  10.7557  10.7561  10.7562  10.7562  10.7563  10.7564
    10.7565  10.7570  10.9130  10.9137  10.9139  10.9140  10.9142  10.9145
    10.9407  10.9410  10.9417  10.9419  11.4783  11.4784  11.4785  11.4786
    11.4791  11.4799  11.6158  11.6159  11.6160  11.6161  11.6166  11.6173
    11.6872  11.6873  11.7682  11.7683  11.7684  11.7686  11.7692  11.7695
    11.8722  11.8725  11.8727  11.8728  11.8729  11.8731  11.9698  11.9707
    11.9710  11.9712  12.1324  12.1326  12.1329  12.1333  12.3410  12.3415
    12.6287  12.6295  12.6296  12.6297  12.6299  12.6301  12.8325  12.8326
    12.8328  12.8330  12.8782  12.8794  12.8798  12.8800  12.8803  12.8806

     occupation numbers 
     1.0000   1.0000   1.0000   1.0000   1.0000   1.0000   1.0000   1.0000
     1.0000   1.0000   1.0000   1.0000   1.0000   1.0000   1.0000   1.0000
     1.0000   1.0000   1.0000   1.0000   1.0000   1.0000   1.0000   1.0000
     1.0000   1.0000   1.0000   1.0000   1.0000   1.0000   1.0000   1.0000
     1.0000   1.0000   1.0000   1.0000   1.0000   1.0000   1.0000   1.0000
     1.0000   1.0000   1.0000   1.0000   1.0000   1.0000   1.0000   1.0000
     1.0000   1.0000   1.0000   1.0000   1.0000   1.0000   1.0000   1.0000
     1.0000   1.0000   1.0000   1.0000   1.0000   1.0000   1.0000   1.0000
     1.0000   1.0000   1.0000   1.0000   1.0000   1.0000   1.0000   1.0000
     1.0000   1.0000   1.0000   1.0000   1.0000   1.0000   1.0000   1.0000
     1.0000   1.0000   1.0000   1.0000   1.0000   1.0000   1.0000   1.0000
     1.0000   1.0000   1.0000   1.0000   1.0000   1.0000   1.0000   1.0000
     1.0000   1.0000   1.0000   1.0000   1.0000   1.0000   1.0000   1.0000
     1.0000   1.0000   1.0000   1.0000   1.0000   1.0000   1.0000   1.0000
     1.0000   1.0000   1.0000   1.0000   1.0000   1.0000   1.0000   1.0000
     1.0000   1.0000   1.0000   1.0000   1.0000   1.0000   1.0000   1.0000
     1.0000   1.0000   1.0000   1.0000   1.0000   1.0000   1.0000   1.0000
     1.0000   1.0000   1.0000   1.0000   1.0000   1.0000   1.0000   1.0000
     1.0000   1.0000   1.0000   1.0000   1.0000   1.0000   1.0000   1.0000
     1.0000   1.0000   1.0000   1.0000   1.0000   1.0000   1.0000   1.0000
     1.0000   1.0000   1.0000   1.0000   1.0000   1.0000   1.0000   1.0000
     1.0000   1.0000   1.0000   1.0000   1.0000   1.0000   1.0000   1.0000
     1.0000   1.0000   1.0000   1.0000   1.0000   1.0000   1.0000   1.0000
     1.0000   1.0000   1.0000   1.0000   1.0000   1.0000   1.0000   1.0000
     1.0000   1.0000   1.0000   1.0000   1.0000   1.0000   1.0000   1.0000
     1.0000   1.0000   1.0000   1.0000   1.0000   1.0000   1.0000   1.0000
     1.0000   1.0000   1.0000   1.0000   1.0000   1.0000   1.0000   1.0000
     1.0000   1.0000   1.0000   1.0000   1.0000   1.0000   1.0000   1.0000
     1.0000   1.0000   1.0000   1.0000   1.0000   1.0000   1.0000   1.0000
     1.0000   1.0000   1.0000   1.0000   1.0000   1.0000   1.0000   1.0000
     1.0000   1.0000   1.0000   1.0000   1.0000   1.0000   1.0000   1.0000
     1.0000   1.0000   1.0000   1.0000   1.0000   1.0000   1.0000   1.0000
     1.0000   1.0000   1.0000   1.0000   1.0000   1.0000   1.0000   1.0000
     1.0000   1.0000   1.0000   1.0000   1.0000   1.0000   1.0000   1.0000
     1.0000   1.0000   1.0000   1.0000   1.0000   1.0000   1.0000   1.0000
     1.0000   1.0000   1.0000   1.0000   1.0000   1.0000   1.0000   1.0000
     1.0000   1.0000   1.0000   1.0000   1.0000   1.0000   1.0000   1.0000
     1.0000   1.0000   1.0000   1.0000   1.0000   1.0000   1.0000   1.0000
     1.0000   1.0000   1.0000   1.0000   1.0000   1.0000   1.0000   1.0000
     1.0000   1.0000   1.0000   1.0000   1.0000   1.0000   1.0000   1.0000
     1.0000   1.0000   1.0000   1.0000   1.0000   1.0000   1.0000   1.0000
     1.0000   1.0000   1.0000   1.0000   1.0000   1.0000   1.0000   1.0000
     1.0000   1.0000   1.0000   1.0000   1.0000   1.0000   1.0000   1.0000
     1.0000   1.0000   1.0000   1.0000   1.0000   1.0000   1.0000   1.0000
     1.0000   1.0000   1.0000   1.0000   1.0000   1.0000   1.0000   1.0000
     1.0000   1.0000   1.0000   1.0000   1.0000   1.0000   1.0000   1.0000
     1.0000   1.0000   1.0000   1.0000   1.0000   1.0000   1.0000   1.0000
     1.0000   1.0000   1.0000   1.0000   1.0000   1.0000   1.0000   1.0000
     1.0000   1.0000   1.0000   1.0000   1.0000   1.0000   1.0000   1.0000
     1.0000   1.0000   1.0000   1.0000   1.0000   1.0000   1.0000   1.0000
     1.0000   1.0000   1.0000   1.0000   1.0000   1.0000   1.0000   1.0000
     1.0000   1.0000   1.0000   1.0000   1.0000   1.0000   1.0000   1.0000
     1.0000   1.0000   1.0000   1.0000   1.0000   1.0000   1.0000   1.0000
     1.0000   1.0000   1.0000   1.0000   1.0000   1.0000   1.0000   1.0000
     1.0000   1.0000   1.0000   1.0000   1.0000   1.0000   1.0000   1.0000
     1.0000   1.0000   1.0000   1.0000   1.0000   1.0000   1.0000   1.0000
     1.0000   1.0000   1.0000   1.0000   1.0000   1.0000   1.0000   1.0000
     1.0000   1.0000   1.0000   1.0000   1.0000   1.0000   1.0000   1.0000
     1.0000   1.0000   1.0000   1.0000   1.0000   1.0000   1.0000   1.0000
     1.0000   1.0000   1.0000   1.0000   1.0000   1.0000   1.0000   1.0000
     1.0000   1.0000   1.0000   1.0000   1.0000   1.0000   1.0000   1.0000
     1.0000   1.0000   1.0000   1.0000   1.0000   1.0000   1.0000   1.0000
     1.0000   1.0000   1.0000   1.0000   1.0000   1.0000   1.0000   1.0000
     1.0000   1.0000   1.0000   1.0000   1.0000   1.0000   1.0000   1.0000
     1.0000   1.0000   1.0000   1.0000   1.0000   1.0000   1.0000   1.0000
     1.0000   1.0000   1.0000   1.0000   1.0000   1.0000   1.0000   1.0000
     1.0000   1.0000   1.0000   1.0000   1.0000   1.0000   1.0000   1.0000
     1.0015   1.0015   1.0015   1.0015  -0.0354  -0.0354  -0.0354  -0.0354
    -0.0354  -0.0354  -0.0000  -0.0000  -0.0000  -0.0000  -0.0000  -0.0000
    -0.0000  -0.0000  -0.0000  -0.0000  -0.0000  -0.0000  -0.0000  -0.0000
    -0.0000  -0.0000  -0.0000  -0.0000  -0.0000  -0.0000  -0.0000  -0.0000
    -0.0000  -0.0000  -0.0000  -0.0000  -0.0000  -0.0000  -0.0000  -0.0000
    -0.0000  -0.0000  -0.0000  -0.0000  -0.0000  -0.0000  -0.0000  -0.0000
    -0.0000  -0.0000  -0.0000  -0.0000  -0.0000  -0.0000  -0.0000  -0.0000
    -0.0000  -0.0000  -0.0000  -0.0000  -0.0000  -0.0000  -0.0000  -0.0000
    -0.0000  -0.0000  -0.0000  -0.0000  -0.0000  -0.0000  -0.0000  -0.0000
    -0.0000  -0.0000  -0.0000  -0.0000  -0.0000  -0.0000  -0.0000  -0.0000
    -0.0000  -0.0000  -0.0000  -0.0000  -0.0000  -0.0000  -0.0000  -0.0000
    -0.0000  -0.0000  -0.0000  -0.0000  -0.0000  -0.0000  -0.0000  -0.0000
    -0.0000  -0.0000  -0.0000  -0.0000  -0.0000  -0.0000  -0.0000  -0.0000
    -0.0000  -0.0000  -0.0000  -0.0000  -0.0000  -0.0000  -0.0000  -0.0000

          k = 0.0000 0.2887 0.0000 (554671 PWs)   bands (ev):

   -68.2859 -68.2855 -68.2851 -68.2849 -68.2847 -68.2846 -68.2846 -68.2846
   -68.2846 -68.2845 -68.2845 -68.2845 -68.2844 -68.2844 -68.2841 -68.2840
   -68.2838 -68.2835 -67.7455 -67.7452 -67.7450 -67.7447 -67.7445 -67.7445
   -67.7444 -67.7443 -67.7443 -67.7443 -67.7442 -67.7442 -67.7442 -67.7442
   -67.7441 -67.7440 -67.7440 -67.7440 -67.7439 -67.7438 -67.7438 -67.7438
   -67.7437 -67.7437 -67.7436 -67.7436 -67.7436 -67.7436 -67.7436 -67.7435
   -67.7435 -67.7434 -67.7434 -67.7433 -67.7433 -67.7428 -35.6969 -35.6966
   -35.6961 -35.6960 -35.6957 -35.6957 -35.6957 -35.6957 -35.6956 -35.6955
   -35.6955 -35.6955 -35.6955 -35.6954 -35.6952 -35.6950 -35.6949 -35.6946
   -35.6920 -35.6920 -35.6917 -35.6917 -35.6913 -35.6912 -35.6911 -35.6911
   -35.6908 -35.6908 -35.6908 -35.6908 -35.6908 -35.6908 -35.6907 -35.6907
   -35.6907 -35.6907 -35.6906 -35.6906 -35.6906 -35.6906 -35.6906 -35.6906
   -35.6906 -35.6905 -35.6905 -35.6905 -35.6903 -35.6903 -35.6902 -35.6901
   -35.6900 -35.6899 -35.6897 -35.6896 -35.1782 -35.1781 -35.1779 -35.1778
   -35.1777 -35.1777 -35.1776 -35.1776 -35.1774 -35.1773 -35.1773 -35.1773
   -35.1773 -35.1773 -35.1773 -35.1772 -35.1772 -35.1772 -35.1772 -35.1771
   -35.1771 -35.1771 -35.1771 -35.1771 -35.1770 -35.1770 -35.1770 -35.1770
   -35.1769 -35.1769 -35.1768 -35.1768 -35.1768 -35.1767 -35.1767 -35.1766
   -35.1764 -35.1763 -35.1762 -35.1762 -35.1759 -35.1758 -35.1756 -35.1756
   -35.1755 -35.1755 -35.1754 -35.1753 -35.1752 -35.1752 -35.1750 -35.1749
   -35.1741 -35.1739 -35.1711 -35.1711 -35.1709 -35.1709 -35.1708 -35.1708
   -35.1707 -35.1706 -35.1706 -35.1705 -35.1705 -35.1705 -35.1704 -35.1704
   -35.1704 -35.1704 -35.1703 -35.1702 -35.1702 -35.1702 -35.1699 -35.1696
   -35.1696 -35.1695 -35.1693 -35.1693 -35.1693 -35.1691 -35.1689 -35.1689
   -35.1689 -35.1688 -35.1687 -35.1687 -35.1686 -35.1685 -35.1685 -35.1684
   -35.1684 -35.1683 -35.1682 -35.1682 -35.1682 -35.1681 -35.1681 -35.1681
   -35.1681 -35.1681 -35.1680 -35.1680 -35.1680 -35.1680 -35.1680 -35.1676
   -14.2179 -14.2174 -14.2167 -14.2162 -14.2159 -14.2157 -14.2155 -14.2153
   -14.2152 -14.2150 -14.2149 -14.2148 -14.2146 -14.2145 -14.2138 -14.2135
   -14.2134 -14.2130 -14.2123 -14.2118 -14.2114 -14.2112 -14.2106 -14.2105
   -14.2103 -14.2102 -14.2101 -14.2100 -14.2099 -14.2098 -14.2098 -14.2098
   -14.2098 -14.2096 -14.2095 -14.2093 -14.2092 -14.2092 -14.2091 -14.2090
   -14.2089 -14.2088 -14.2086 -14.2085 -14.2085 -14.2084 -14.2083 -14.2082
   -14.2081 -14.2080 -14.2078 -14.2077 -14.2074 -14.2073 -14.2072 -14.2068
   -14.2063 -14.2059 -14.2057 -14.2056 -14.2054 -14.2053 -14.2051 -14.2050
   -14.2048 -14.2047 -14.2043 -14.2038 -14.2037 -14.2033 -14.2030 -14.2027
   -14.1901 -14.1886 -14.1882 -14.1879 -14.1877 -14.1876 -14.1874 -14.1872
   -14.1869 -14.1867 -14.1865 -14.1865 -14.1864 -14.1862 -14.1860 -14.1857
   -14.1854 -14.1852 -14.1849 -14.1845 -14.1843 -14.1843 -14.1841 -14.1841
   -14.1838 -14.1837 -14.1836 -14.1834 -14.1833 -14.1830 -14.1830 -14.1829
   -14.1828 -14.1825 -14.1822 -14.1806 -14.1749 -14.1748 -14.1738 -14.1738
   -14.1733 -14.1731 -14.1724 -14.1723 -14.1721 -14.1718 -14.1718 -14.1715
   -14.1714 -14.1713 -14.1712 -14.1711 -14.1710 -14.1710 -14.1708 -14.1707
   -14.1703 -14.1702 -14.1702 -14.1700 -14.1698 -14.1694 -14.1692 -14.1690
   -14.1686 -14.1682 -14.1681 -14.1676 -14.1659 -14.1657 -14.1650 -14.1648
   -14.1646 -14.1643 -14.1642 -14.1641 -14.1640 -14.1638 -14.1635 -14.1634
   -14.1632 -14.1631 -14.1628 -14.1627 -14.1622 -14.1621 -14.1619 -14.1614
   -14.1603 -14.1598 -14.1595 -14.1593 -14.1593 -14.1590 -14.1585 -14.1584
   -14.1582 -14.1579 -14.1577 -14.1577 -14.1576 -14.1574 -14.1573 -14.1571
   -14.1569 -14.1564 -14.1561 -14.1558  -3.6873  -3.4168  -3.3938  -3.2660
    -3.2656  -3.1594  -3.1041  -3.0554  -3.0549  -3.0522  -3.0518  -2.9814
    -2.9055  -2.8859  -2.8855  -2.8318  -2.8294  -2.8289  -2.7668  -2.7664
    -2.7256  -2.7251  -2.7175  -2.7005  -2.6917  -2.6913  -2.6355  -2.6350
    -2.6000  -2.5790  -2.5786  -2.5653  -2.5649  -2.5470  -2.5402  -2.5397
     3.0350   3.1114   3.3157   3.3158   3.3560   3.4157   3.4159   3.5129
     3.5182   3.5323   3.5325   3.5765   3.5768   3.5984   3.5988   3.6636
     3.6640   3.7405   3.7410   3.7599   3.7600   3.9969   4.0154   4.0157
     4.1874   4.1877   4.2180   4.2187   4.2548   4.2552   4.2647   4.2923
     4.2966   4.2968   4.4120   4.4453   4.4456   4.5011   4.5268   4.5634
     4.5638   4.7612   4.8417   4.8421   4.9663   4.9666   4.9899   4.9904
     5.3059   5.6050   5.6052   5.6401   5.6403   5.7633   5.7750   5.7755
     5.7796   5.7799   5.8694   5.8696   5.9376   5.9378   6.0419   6.0944
     6.0949   6.1032   6.1481   6.1713   6.1715   6.1887   6.1901   6.2428
     6.4060   6.4413   6.4414   6.4461   6.4465   6.4693   6.4775   6.4778
     6.5511   6.6004   6.6240   6.6243   6.6718   6.6722   6.8464   6.9037
     6.9083   6.9145   6.9743   6.9747   7.0202   7.0205   7.0324   7.0453
     7.0457   7.0626   7.0630   7.1981   7.1984   7.2000   7.3070   7.3429
     7.3858   7.5916   7.7815   8.0324   8.3626   8.3936   8.4271   8.4275
     8.7360   8.7362   8.8034   8.8036   8.8590   8.8712   9.0136   9.0138
     9.0377   9.1290   9.1291   9.2096   9.3631   9.4332   9.4335   9.5559
     9.5563   9.5773   9.5776   9.6630   9.7037   9.7538   9.7917   9.8648
     9.9007   9.9232   9.9237   9.9613   9.9618  10.2039  10.2042  10.2431
    10.2433  10.2958  10.2995  10.2998  10.3131  10.3131  10.3968  10.4349
    10.6931  10.6937  10.7168  10.7172  10.7571  10.7703  10.8278  10.8280
    10.9001  10.9261  10.9262  10.9952  11.1225  11.1227  11.1553  11.1558
    11.2237  11.2239  11.2611  11.2643  11.2990  11.2993  11.3586  11.3589
    11.4218  11.7470  11.7521  11.7842  11.7844  11.9057  11.9983  11.9988
    12.0057  12.0059  12.0324  12.0327  12.0333  12.0336  12.0877  12.0927
    12.1099  12.1171  12.1175  12.1204  12.1962  12.1964  12.2063  12.2066
    12.3153  12.3985  12.3987  12.5039  12.5141  12.5145  12.5386  12.5693
    12.5736  12.5933  12.6838  12.6950  12.6953  12.7017  12.7378  12.7378

     occupation numbers 
     1.0000   1.0000   1.0000   1.0000   1.0000   1.0000   1.0000   1.0000
     1.0000   1.0000   1.0000   1.0000   1.0000   1.0000   1.0000   1.0000
     1.0000   1.0000   1.0000   1.0000   1.0000   1.0000   1.0000   1.0000
     1.0000   1.0000   1.0000   1.0000   1.0000   1.0000   1.0000   1.0000
     1.0000   1.0000   1.0000   1.0000   1.0000   1.0000   1.0000   1.0000
     1.0000   1.0000   1.0000   1.0000   1.0000   1.0000   1.0000   1.0000
     1.0000   1.0000   1.0000   1.0000   1.0000   1.0000   1.0000   1.0000
     1.0000   1.0000   1.0000   1.0000   1.0000   1.0000   1.0000   1.0000
     1.0000   1.0000   1.0000   1.0000   1.0000   1.0000   1.0000   1.0000
     1.0000   1.0000   1.0000   1.0000   1.0000   1.0000   1.0000   1.0000
     1.0000   1.0000   1.0000   1.0000   1.0000   1.0000   1.0000   1.0000
     1.0000   1.0000   1.0000   1.0000   1.0000   1.0000   1.0000   1.0000
     1.0000   1.0000   1.0000   1.0000   1.0000   1.0000   1.0000   1.0000
     1.0000   1.0000   1.0000   1.0000   1.0000   1.0000   1.0000   1.0000
     1.0000   1.0000   1.0000   1.0000   1.0000   1.0000   1.0000   1.0000
     1.0000   1.0000   1.0000   1.0000   1.0000   1.0000   1.0000   1.0000
     1.0000   1.0000   1.0000   1.0000   1.0000   1.0000   1.0000   1.0000
     1.0000   1.0000   1.0000   1.0000   1.0000   1.0000   1.0000   1.0000
     1.0000   1.0000   1.0000   1.0000   1.0000   1.0000   1.0000   1.0000
     1.0000   1.0000   1.0000   1.0000   1.0000   1.0000   1.0000   1.0000
     1.0000   1.0000   1.0000   1.0000   1.0000   1.0000   1.0000   1.0000
     1.0000   1.0000   1.0000   1.0000   1.0000   1.0000   1.0000   1.0000
     1.0000   1.0000   1.0000   1.0000   1.0000   1.0000   1.0000   1.0000
     1.0000   1.0000   1.0000   1.0000   1.0000   1.0000   1.0000   1.0000
     1.0000   1.0000   1.0000   1.0000   1.0000   1.0000   1.0000   1.0000
     1.0000   1.0000   1.0000   1.0000   1.0000   1.0000   1.0000   1.0000
     1.0000   1.0000   1.0000   1.0000   1.0000   1.0000   1.0000   1.0000
     1.0000   1.0000   1.0000   1.0000   1.0000   1.0000   1.0000   1.0000
     1.0000   1.0000   1.0000   1.0000   1.0000   1.0000   1.0000   1.0000
     1.0000   1.0000   1.0000   1.0000   1.0000   1.0000   1.0000   1.0000
     1.0000   1.0000   1.0000   1.0000   1.0000   1.0000   1.0000   1.0000
     1.0000   1.0000   1.0000   1.0000   1.0000   1.0000   1.0000   1.0000
     1.0000   1.0000   1.0000   1.0000   1.0000   1.0000   1.0000   1.0000
     1.0000   1.0000   1.0000   1.0000   1.0000   1.0000   1.0000   1.0000
     1.0000   1.0000   1.0000   1.0000   1.0000   1.0000   1.0000   1.0000
     1.0000   1.0000   1.0000   1.0000   1.0000   1.0000   1.0000   1.0000
     1.0000   1.0000   1.0000   1.0000   1.0000   1.0000   1.0000   1.0000
     1.0000   1.0000   1.0000   1.0000   1.0000   1.0000   1.0000   1.0000
     1.0000   1.0000   1.0000   1.0000   1.0000   1.0000   1.0000   1.0000
     1.0000   1.0000   1.0000   1.0000   1.0000   1.0000   1.0000   1.0000
     1.0000   1.0000   1.0000   1.0000   1.0000   1.0000   1.0000   1.0000
     1.0000   1.0000   1.0000   1.0000   1.0000   1.0000   1.0000   1.0000
     1.0000   1.0000   1.0000   1.0000   1.0000   1.0000   1.0000   1.0000
     1.0000   1.0000   1.0000   1.0000   1.0000   1.0000   1.0000   1.0000
     1.0000   1.0000   1.0000   1.0000   1.0000   1.0000   1.0000   1.0000
     1.0000   1.0000   1.0000   1.0000   1.0000   1.0000   1.0000   1.0000
     1.0000   1.0000   1.0000   1.0000   1.0000   1.0000   1.0000   1.0000
     1.0000   1.0000   1.0000   1.0000   1.0000   1.0000   1.0000   1.0000
     1.0000   1.0000   1.0000   1.0000   1.0000   1.0000   1.0000   1.0000
     1.0000   1.0000   1.0000   1.0000   1.0000   1.0000   1.0000   1.0000
     1.0000   1.0000   1.0000   1.0000   1.0000   1.0000   1.0000   1.0000
     1.0000   1.0000   1.0000   1.0000   1.0000   1.0000   1.0000   1.0000
     1.0000   1.0000   1.0000   1.0000   1.0000   1.0000   1.0000   1.0000
     1.0000   1.0000   1.0000   1.0000   1.0000   1.0000   1.0000   1.0000
     1.0000   1.0000   1.0000   1.0000   1.0000   1.0000   1.0000   1.0000
     1.0000   1.0000   1.0000   1.0000   1.0000   1.0000   1.0000   1.0000
     1.0000   1.0000   1.0000   1.0000   1.0000   1.0000   1.0000   1.0000
     1.0000   1.0000   1.0000   1.0000   1.0000   1.0000   1.0000   1.0000
     1.0000   1.0000   1.0000   1.0000   1.0000   1.0000   1.0000   1.0000
     1.0000   1.0000   1.0000   1.0000   1.0000   1.0000   1.0000   1.0000
     1.0000   1.0000   1.0000   1.0000   1.0000   1.0000   1.0000   1.0000
     1.0000   1.0000   1.0000   1.0000   1.0000   1.0000   1.0000   1.0000
     1.0000   1.0000   1.0000   1.0000   1.0000   1.0000   1.0000   1.0000
     1.0000   1.0000   1.0000   1.0000   1.0000   1.0000   1.0000   1.0000
     1.0000   1.0000   1.0000   1.0000   1.0000   1.0000   1.0000   1.0000
     1.0000   1.0000   1.0000   1.0000   1.0000   1.0000   1.0000   1.0000
     1.0000   1.0000   1.0000   1.0000   1.0000   1.0000   1.0000   1.0000
     1.0000   1.0002   1.0301   0.1899  -0.0002  -0.0001  -0.0000  -0.0000
    -0.0000  -0.0000  -0.0000  -0.0000  -0.0000  -0.0000  -0.0000  -0.0000
    -0.0000  -0.0000  -0.0000  -0.0000  -0.0000  -0.0000  -0.0000  -0.0000
    -0.0000  -0.0000  -0.0000  -0.0000  -0.0000  -0.0000  -0.0000  -0.0000
    -0.0000  -0.0000  -0.0000  -0.0000  -0.0000  -0.0000  -0.0000  -0.0000
    -0.0000  -0.0000  -0.0000  -0.0000  -0.0000  -0.0000  -0.0000  -0.0000
    -0.0000  -0.0000  -0.0000  -0.0000  -0.0000  -0.0000  -0.0000  -0.0000
    -0.0000  -0.0000  -0.0000  -0.0000  -0.0000  -0.0000  -0.0000  -0.0000
    -0.0000  -0.0000  -0.0000  -0.0000  -0.0000  -0.0000  -0.0000  -0.0000
    -0.0000  -0.0000  -0.0000  -0.0000  -0.0000  -0.0000  -0.0000  -0.0000
    -0.0000  -0.0000  -0.0000  -0.0000  -0.0000  -0.0000  -0.0000  -0.0000
    -0.0000  -0.0000  -0.0000  -0.0000  -0.0000  -0.0000  -0.0000  -0.0000
    -0.0000  -0.0000  -0.0000  -0.0000  -0.0000  -0.0000  -0.0000  -0.0000
    -0.0000  -0.0000  -0.0000  -0.0000  -0.0000  -0.0000  -0.0000  -0.0000

          k = 0.0000 0.2887 0.2373 (554660 PWs)   bands (ev):

   -68.2859 -68.2855 -68.2851 -68.2849 -68.2847 -68.2846 -68.2846 -68.2846
   -68.2846 -68.2845 -68.2845 -68.2845 -68.2844 -68.2844 -68.2841 -68.2840
   -68.2838 -68.2835 -67.7455 -67.7452 -67.7450 -67.7447 -67.7445 -67.7445
   -67.7444 -67.7443 -67.7443 -67.7443 -67.7442 -67.7442 -67.7442 -67.7442
   -67.7441 -67.7440 -67.7440 -67.7440 -67.7439 -67.7438 -67.7438 -67.7438
   -67.7437 -67.7437 -67.7436 -67.7436 -67.7436 -67.7436 -67.7436 -67.7435
   -67.7435 -67.7434 -67.7434 -67.7433 -67.7433 -67.7428 -35.6969 -35.6966
   -35.6961 -35.6960 -35.6957 -35.6957 -35.6957 -35.6957 -35.6956 -35.6955
   -35.6955 -35.6955 -35.6955 -35.6954 -35.6952 -35.6950 -35.6949 -35.6946
   -35.6920 -35.6920 -35.6917 -35.6917 -35.6913 -35.6912 -35.6911 -35.6911
   -35.6908 -35.6908 -35.6908 -35.6908 -35.6908 -35.6908 -35.6907 -35.6907
   -35.6907 -35.6907 -35.6906 -35.6906 -35.6906 -35.6906 -35.6906 -35.6906
   -35.6906 -35.6905 -35.6905 -35.6905 -35.6903 -35.6903 -35.6902 -35.6901
   -35.6900 -35.6899 -35.6897 -35.6896 -35.1782 -35.1781 -35.1779 -35.1778
   -35.1777 -35.1777 -35.1776 -35.1776 -35.1774 -35.1773 -35.1773 -35.1773
   -35.1773 -35.1773 -35.1773 -35.1772 -35.1772 -35.1772 -35.1772 -35.1771
   -35.1771 -35.1771 -35.1771 -35.1771 -35.1770 -35.1770 -35.1770 -35.1770
   -35.1769 -35.1769 -35.1768 -35.1768 -35.1768 -35.1767 -35.1767 -35.1766
   -35.1764 -35.1763 -35.1762 -35.1762 -35.1759 -35.1758 -35.1756 -35.1756
   -35.1755 -35.1755 -35.1754 -35.1753 -35.1752 -35.1752 -35.1750 -35.1749
   -35.1741 -35.1739 -35.1711 -35.1711 -35.1709 -35.1709 -35.1708 -35.1708
   -35.1707 -35.1706 -35.1706 -35.1705 -35.1705 -35.1705 -35.1704 -35.1704
   -35.1704 -35.1704 -35.1703 -35.1702 -35.1702 -35.1702 -35.1699 -35.1696
   -35.1696 -35.1695 -35.1693 -35.1693 -35.1693 -35.1691 -35.1689 -35.1689
   -35.1689 -35.1688 -35.1687 -35.1687 -35.1686 -35.1685 -35.1685 -35.1684
   -35.1684 -35.1683 -35.1682 -35.1682 -35.1682 -35.1681 -35.1681 -35.1681
   -35.1681 -35.1681 -35.1680 -35.1680 -35.1680 -35.1680 -35.1680 -35.1676
   -14.2179 -14.2174 -14.2166 -14.2161 -14.2158 -14.2157 -14.2157 -14.2156
   -14.2154 -14.2150 -14.2148 -14.2146 -14.2144 -14.2142 -14.2137 -14.2136
   -14.2134 -14.2130 -14.2126 -14.2118 -14.2114 -14.2112 -14.2106 -14.2105
   -14.2104 -14.2103 -14.2102 -14.2100 -14.2099 -14.2099 -14.2098 -14.2097
   -14.2096 -14.2096 -14.2095 -14.2093 -14.2091 -14.2091 -14.2090 -14.2090
   -14.2088 -14.2088 -14.2087 -14.2086 -14.2085 -14.2085 -14.2084 -14.2083
   -14.2081 -14.2080 -14.2077 -14.2076 -14.2075 -14.2073 -14.2070 -14.2070
   -14.2065 -14.2060 -14.2059 -14.2055 -14.2053 -14.2053 -14.2051 -14.2050
   -14.2047 -14.2046 -14.2039 -14.2038 -14.2037 -14.2035 -14.2031 -14.2028
   -14.1901 -14.1886 -14.1883 -14.1878 -14.1877 -14.1875 -14.1873 -14.1871
   -14.1871 -14.1867 -14.1866 -14.1866 -14.1865 -14.1863 -14.1861 -14.1857
   -14.1854 -14.1852 -14.1848 -14.1845 -14.1844 -14.1843 -14.1842 -14.1841
   -14.1838 -14.1836 -14.1836 -14.1834 -14.1832 -14.1830 -14.1829 -14.1829
   -14.1828 -14.1825 -14.1822 -14.1806 -14.1749 -14.1748 -14.1738 -14.1738
   -14.1732 -14.1731 -14.1723 -14.1722 -14.1721 -14.1719 -14.1718 -14.1715
   -14.1714 -14.1713 -14.1712 -14.1712 -14.1711 -14.1709 -14.1708 -14.1707
   -14.1704 -14.1703 -14.1702 -14.1701 -14.1699 -14.1694 -14.1692 -14.1691
   -14.1684 -14.1681 -14.1679 -14.1676 -14.1658 -14.1656 -14.1651 -14.1649
   -14.1647 -14.1644 -14.1642 -14.1641 -14.1640 -14.1639 -14.1635 -14.1634
   -14.1632 -14.1631 -14.1629 -14.1628 -14.1622 -14.1620 -14.1618 -14.1614
   -14.1603 -14.1598 -14.1595 -14.1592 -14.1591 -14.1589 -14.1585 -14.1583
   -14.1582 -14.1580 -14.1578 -14.1576 -14.1576 -14.1574 -14.1573 -14.1571
   -14.1570 -14.1566 -14.1562 -14.1558  -3.6617  -3.4845  -3.3710  -3.2461
    -3.2457  -3.2190  -3.1042  -3.1038  -3.0378  -3.0373  -3.0201  -2.9681
    -2.9301  -2.9297  -2.8661  -2.8353  -2.7706  -2.7701  -2.7609  -2.7593
    -2.7589  -2.7090  -2.7086  -2.6784  -2.6779  -2.6660  -2.6340  -2.6210
    -2.6206  -2.5923  -2.5918  -2.5837  -2.5833  -2.5607  -2.5604  -2.5599
     3.1494   3.1557   3.2537   3.2685   3.2686   3.4532   3.4534   3.5202
     3.5205   3.5436   3.5439   3.5744   3.5915   3.6305   3.6308   3.6504
     3.6509   3.7847   3.7850   3.7886   3.8081   3.8086   3.9839   4.0374
     4.0376   4.0931   4.0935   4.1151   4.1154   4.1355   4.2626   4.2629
     4.3851   4.3854   4.4315   4.4318   4.5319   4.5379   4.5550   4.5552
     4.6993   4.8423   4.8427   5.0934   5.0938   5.2284   5.2778   5.2784
     5.3473   5.4671   5.4673   5.5056   5.5058   5.5703   5.6159   5.6277
     5.6280   5.6542   5.6544   5.8029   5.9174   5.9176   6.0280   6.0283
     6.0320   6.0325   6.0422   6.0425   6.0613   6.2155   6.2887   6.2960
     6.2964   6.4322   6.4987   6.4990   6.5071   6.5835   6.5839   6.6315
     6.6319   6.6832   6.7246   6.7556   6.7755   6.8074   6.8901   6.9381
     6.9385   7.0007   7.0009   7.0120   7.0125   7.0232   7.0248   7.0250
     7.0290   7.0292   7.0537   7.1602   7.2055   7.2136   7.2139   7.3858
     7.5176   7.5386   7.7090   7.8287   8.2955   8.3482   8.3484   8.5295
     8.5904   8.6256   8.6259   8.8848   8.8850   8.9412   8.9413   9.0232
     9.1016   9.1885   9.3144   9.3147   9.3386   9.4413   9.5041   9.5044
     9.5279   9.6963   9.6966   9.7368   9.7590   9.7593   9.7720   9.8477
     9.8479   9.8752   9.8755   9.8905   9.9547   9.9551   9.9660  10.2657
    10.2661  10.3612  10.3613  10.3681  10.3685  10.4601  10.4865  10.4868
    10.6305  10.6306  10.6683  10.6738  10.7930  10.9047  10.9208  10.9770
    10.9771  10.9787  10.9789  11.0167  11.0171  11.0815  11.0978  11.2382
    11.2529  11.2532  11.3362  11.3365  11.3419  11.3511  11.3762  11.4732
    11.4735  11.6616  11.6621  11.7038  11.7161  11.7167  11.7618  11.7622
    11.9343  11.9688  11.9759  12.0154  12.0191  12.0194  12.0346  12.0349
    12.0409  12.0486  12.1365  12.1369  12.1389  12.1391  12.2110  12.2112
    12.2463  12.2592  12.3242  12.4806  12.5506  12.5509  12.5777  12.5779
    12.5908  12.5910  12.6880  12.7145  12.7626  12.7760  12.8493  12.8796

     occupation numbers 
     1.0000   1.0000   1.0000   1.0000   1.0000   1.0000   1.0000   1.0000
     1.0000   1.0000   1.0000   1.0000   1.0000   1.0000   1.0000   1.0000
     1.0000   1.0000   1.0000   1.0000   1.0000   1.0000   1.0000   1.0000
     1.0000   1.0000   1.0000   1.0000   1.0000   1.0000   1.0000   1.0000
     1.0000   1.0000   1.0000   1.0000   1.0000   1.0000   1.0000   1.0000
     1.0000   1.0000   1.0000   1.0000   1.0000   1.0000   1.0000   1.0000
     1.0000   1.0000   1.0000   1.0000   1.0000   1.0000   1.0000   1.0000
     1.0000   1.0000   1.0000   1.0000   1.0000   1.0000   1.0000   1.0000
     1.0000   1.0000   1.0000   1.0000   1.0000   1.0000   1.0000   1.0000
     1.0000   1.0000   1.0000   1.0000   1.0000   1.0000   1.0000   1.0000
     1.0000   1.0000   1.0000   1.0000   1.0000   1.0000   1.0000   1.0000
     1.0000   1.0000   1.0000   1.0000   1.0000   1.0000   1.0000   1.0000
     1.0000   1.0000   1.0000   1.0000   1.0000   1.0000   1.0000   1.0000
     1.0000   1.0000   1.0000   1.0000   1.0000   1.0000   1.0000   1.0000
     1.0000   1.0000   1.0000   1.0000   1.0000   1.0000   1.0000   1.0000
     1.0000   1.0000   1.0000   1.0000   1.0000   1.0000   1.0000   1.0000
     1.0000   1.0000   1.0000   1.0000   1.0000   1.0000   1.0000   1.0000
     1.0000   1.0000   1.0000   1.0000   1.0000   1.0000   1.0000   1.0000
     1.0000   1.0000   1.0000   1.0000   1.0000   1.0000   1.0000   1.0000
     1.0000   1.0000   1.0000   1.0000   1.0000   1.0000   1.0000   1.0000
     1.0000   1.0000   1.0000   1.0000   1.0000   1.0000   1.0000   1.0000
     1.0000   1.0000   1.0000   1.0000   1.0000   1.0000   1.0000   1.0000
     1.0000   1.0000   1.0000   1.0000   1.0000   1.0000   1.0000   1.0000
     1.0000   1.0000   1.0000   1.0000   1.0000   1.0000   1.0000   1.0000
     1.0000   1.0000   1.0000   1.0000   1.0000   1.0000   1.0000   1.0000
     1.0000   1.0000   1.0000   1.0000   1.0000   1.0000   1.0000   1.0000
     1.0000   1.0000   1.0000   1.0000   1.0000   1.0000   1.0000   1.0000
     1.0000   1.0000   1.0000   1.0000   1.0000   1.0000   1.0000   1.0000
     1.0000   1.0000   1.0000   1.0000   1.0000   1.0000   1.0000   1.0000
     1.0000   1.0000   1.0000   1.0000   1.0000   1.0000   1.0000   1.0000
     1.0000   1.0000   1.0000   1.0000   1.0000   1.0000   1.0000   1.0000
     1.0000   1.0000   1.0000   1.0000   1.0000   1.0000   1.0000   1.0000
     1.0000   1.0000   1.0000   1.0000   1.0000   1.0000   1.0000   1.0000
     1.0000   1.0000   1.0000   1.0000   1.0000   1.0000   1.0000   1.0000
     1.0000   1.0000   1.0000   1.0000   1.0000   1.0000   1.0000   1.0000
     1.0000   1.0000   1.0000   1.0000   1.0000   1.0000   1.0000   1.0000
     1.0000   1.0000   1.0000   1.0000   1.0000   1.0000   1.0000   1.0000
     1.0000   1.0000   1.0000   1.0000   1.0000   1.0000   1.0000   1.0000
     1.0000   1.0000   1.0000   1.0000   1.0000   1.0000   1.0000   1.0000
     1.0000   1.0000   1.0000   1.0000   1.0000   1.0000   1.0000   1.0000
     1.0000   1.0000   1.0000   1.0000   1.0000   1.0000   1.0000   1.0000
     1.0000   1.0000   1.0000   1.0000   1.0000   1.0000   1.0000   1.0000
     1.0000   1.0000   1.0000   1.0000   1.0000   1.0000   1.0000   1.0000
     1.0000   1.0000   1.0000   1.0000   1.0000   1.0000   1.0000   1.0000
     1.0000   1.0000   1.0000   1.0000   1.0000   1.0000   1.0000   1.0000
     1.0000   1.0000   1.0000   1.0000   1.0000   1.0000   1.0000   1.0000
     1.0000   1.0000   1.0000   1.0000   1.0000   1.0000   1.0000   1.0000
     1.0000   1.0000   1.0000   1.0000   1.0000   1.0000   1.0000   1.0000
     1.0000   1.0000   1.0000   1.0000   1.0000   1.0000   1.0000   1.0000
     1.0000   1.0000   1.0000   1.0000   1.0000   1.0000   1.0000   1.0000
     1.0000   1.0000   1.0000   1.0000   1.0000   1.0000   1.0000   1.0000
     1.0000   1.0000   1.0000   1.0000   1.0000   1.0000   1.0000   1.0000
     1.0000   1.0000   1.0000   1.0000   1.0000   1.0000   1.0000   1.0000
     1.0000   1.0000   1.0000   1.0000   1.0000   1.0000   1.0000   1.0000
     1.0000   1.0000   1.0000   1.0000   1.0000   1.0000   1.0000   1.0000
     1.0000   1.0000   1.0000   1.0000   1.0000   1.0000   1.0000   1.0000
     1.0000   1.0000   1.0000   1.0000   1.0000   1.0000   1.0000   1.0000
     1.0000   1.0000   1.0000   1.0000   1.0000   1.0000   1.0000   1.0000
     1.0000   1.0000   1.0000   1.0000   1.0000   1.0000   1.0000   1.0000
     1.0000   1.0000   1.0000   1.0000   1.0000   1.0000   1.0000   1.0000
     1.0000   1.0000   1.0000   1.0000   1.0000   1.0000   1.0000   1.0000
     1.0000   1.0000   1.0000   1.0000   1.0000   1.0000   1.0000   1.0000
     1.0000   1.0000   1.0000   1.0000   1.0000   1.0000   1.0000   1.0000
     1.0000   1.0000   1.0000   1.0000   1.0000   1.0000   1.0000   1.0000
     1.0000   1.0000   1.0000   1.0000   1.0000   1.0000   1.0000   1.0000
     1.0000   1.0000   1.0000   1.0000   1.0000   1.0000   1.0000   1.0000
     1.0000   1.0000   1.0000   1.0000   1.0000   1.0000   1.0000   1.0000
     1.0000   1.0000   1.0086   1.0325  -0.0024  -0.0004  -0.0004  -0.0000
    -0.0000  -0.0000  -0.0000  -0.0000  -0.0000  -0.0000  -0.0000  -0.0000
    -0.0000  -0.0000  -0.0000  -0.0000  -0.0000  -0.0000  -0.0000  -0.0000
    -0.0000  -0.0000  -0.0000  -0.0000  -0.0000  -0.0000  -0.0000  -0.0000
    -0.0000  -0.0000  -0.0000  -0.0000  -0.0000  -0.0000  -0.0000  -0.0000
    -0.0000  -0.0000  -0.0000  -0.0000  -0.0000  -0.0000  -0.0000  -0.0000
    -0.0000  -0.0000  -0.0000  -0.0000  -0.0000  -0.0000  -0.0000  -0.0000
    -0.0000  -0.0000  -0.0000  -0.0000  -0.0000  -0.0000  -0.0000  -0.0000
    -0.0000  -0.0000  -0.0000  -0.0000  -0.0000  -0.0000  -0.0000  -0.0000
    -0.0000  -0.0000  -0.0000  -0.0000  -0.0000  -0.0000  -0.0000  -0.0000
    -0.0000  -0.0000  -0.0000  -0.0000  -0.0000  -0.0000  -0.0000  -0.0000
    -0.0000  -0.0000  -0.0000  -0.0000  -0.0000  -0.0000  -0.0000  -0.0000
    -0.0000  -0.0000  -0.0000  -0.0000  -0.0000  -0.0000  -0.0000  -0.0000
    -0.0000  -0.0000  -0.0000  -0.0000  -0.0000  -0.0000  -0.0000  -0.0000

          k = 0.0000 0.2887-0.4746 (554696 PWs)   bands (ev):

   -68.2859 -68.2855 -68.2851 -68.2849 -68.2847 -68.2846 -68.2846 -68.2846
   -68.2846 -68.2845 -68.2845 -68.2845 -68.2844 -68.2844 -68.2841 -68.2840
   -68.2838 -68.2835 -67.7455 -67.7452 -67.7450 -67.7447 -67.7445 -67.7445
   -67.7444 -67.7443 -67.7443 -67.7443 -67.7442 -67.7442 -67.7442 -67.7442
   -67.7441 -67.7440 -67.7440 -67.7440 -67.7439 -67.7438 -67.7438 -67.7438
   -67.7437 -67.7437 -67.7436 -67.7436 -67.7436 -67.7436 -67.7436 -67.7435
   -67.7435 -67.7434 -67.7434 -67.7433 -67.7433 -67.7428 -35.6969 -35.6966
   -35.6961 -35.6960 -35.6957 -35.6957 -35.6957 -35.6957 -35.6956 -35.6955
   -35.6955 -35.6955 -35.6955 -35.6954 -35.6952 -35.6950 -35.6949 -35.6946
   -35.6920 -35.6920 -35.6917 -35.6917 -35.6913 -35.6912 -35.6911 -35.6911
   -35.6908 -35.6908 -35.6908 -35.6908 -35.6908 -35.6908 -35.6907 -35.6907
   -35.6907 -35.6907 -35.6906 -35.6906 -35.6906 -35.6906 -35.6906 -35.6906
   -35.6906 -35.6905 -35.6905 -35.6905 -35.6903 -35.6903 -35.6902 -35.6901
   -35.6900 -35.6899 -35.6897 -35.6896 -35.1782 -35.1781 -35.1779 -35.1778
   -35.1777 -35.1777 -35.1776 -35.1776 -35.1774 -35.1773 -35.1773 -35.1773
   -35.1773 -35.1773 -35.1773 -35.1772 -35.1772 -35.1772 -35.1772 -35.1771
   -35.1771 -35.1771 -35.1771 -35.1771 -35.1770 -35.1770 -35.1770 -35.1770
   -35.1769 -35.1769 -35.1768 -35.1768 -35.1768 -35.1767 -35.1767 -35.1766
   -35.1764 -35.1763 -35.1762 -35.1762 -35.1759 -35.1758 -35.1756 -35.1756
   -35.1755 -35.1755 -35.1754 -35.1753 -35.1752 -35.1752 -35.1750 -35.1749
   -35.1741 -35.1739 -35.1711 -35.1711 -35.1709 -35.1709 -35.1708 -35.1708
   -35.1707 -35.1706 -35.1706 -35.1705 -35.1705 -35.1705 -35.1704 -35.1704
   -35.1704 -35.1704 -35.1703 -35.1702 -35.1702 -35.1702 -35.1699 -35.1696
   -35.1696 -35.1695 -35.1693 -35.1693 -35.1693 -35.1691 -35.1689 -35.1689
   -35.1689 -35.1688 -35.1687 -35.1687 -35.1686 -35.1685 -35.1685 -35.1684
   -35.1684 -35.1683 -35.1682 -35.1682 -35.1682 -35.1681 -35.1681 -35.1681
   -35.1681 -35.1681 -35.1680 -35.1680 -35.1680 -35.1680 -35.1680 -35.1676
   -14.2178 -14.2174 -14.2166 -14.2163 -14.2160 -14.2158 -14.2155 -14.2155
   -14.2154 -14.2148 -14.2146 -14.2145 -14.2144 -14.2141 -14.2139 -14.2138
   -14.2136 -14.2128 -14.2126 -14.2120 -14.2115 -14.2114 -14.2108 -14.2106
   -14.2105 -14.2103 -14.2102 -14.2100 -14.2098 -14.2098 -14.2097 -14.2096
   -14.2095 -14.2095 -14.2094 -14.2092 -14.2091 -14.2090 -14.2090 -14.2089
   -14.2088 -14.2088 -14.2087 -14.2086 -14.2085 -14.2085 -14.2083 -14.2082
   -14.2081 -14.2080 -14.2078 -14.2077 -14.2076 -14.2074 -14.2072 -14.2071
   -14.2068 -14.2064 -14.2062 -14.2053 -14.2051 -14.2050 -14.2048 -14.2047
   -14.2045 -14.2043 -14.2041 -14.2040 -14.2039 -14.2036 -14.2031 -14.2028
   -14.1901 -14.1885 -14.1884 -14.1877 -14.1875 -14.1873 -14.1873 -14.1870
   -14.1869 -14.1869 -14.1868 -14.1868 -14.1866 -14.1864 -14.1862 -14.1857
   -14.1854 -14.1851 -14.1847 -14.1846 -14.1845 -14.1843 -14.1842 -14.1840
   -14.1838 -14.1836 -14.1836 -14.1834 -14.1832 -14.1830 -14.1829 -14.1829
   -14.1828 -14.1824 -14.1823 -14.1806 -14.1749 -14.1748 -14.1738 -14.1737
   -14.1732 -14.1731 -14.1722 -14.1721 -14.1720 -14.1718 -14.1717 -14.1717
   -14.1716 -14.1715 -14.1714 -14.1712 -14.1711 -14.1710 -14.1707 -14.1706
   -14.1704 -14.1703 -14.1701 -14.1700 -14.1699 -14.1694 -14.1693 -14.1690
   -14.1686 -14.1680 -14.1680 -14.1673 -14.1659 -14.1656 -14.1652 -14.1648
   -14.1648 -14.1645 -14.1643 -14.1641 -14.1640 -14.1639 -14.1635 -14.1634
   -14.1632 -14.1631 -14.1630 -14.1628 -14.1623 -14.1620 -14.1617 -14.1613
   -14.1603 -14.1597 -14.1595 -14.1591 -14.1590 -14.1588 -14.1584 -14.1583
   -14.1582 -14.1581 -14.1580 -14.1576 -14.1575 -14.1574 -14.1573 -14.1572
   -14.1568 -14.1568 -14.1562 -14.1559  -3.5890  -3.5881  -3.3089  -3.3068
    -3.1886  -3.1881  -3.1861  -3.1858  -2.9946  -2.9941  -2.9904  -2.9900
    -2.9282  -2.9234  -2.8763  -2.8754  -2.7386  -2.7381  -2.7372  -2.7368
    -2.7235  -2.7205  -2.6711  -2.6706  -2.6675  -2.6671  -2.6138  -2.6133
    -2.6083  -2.6079  -2.6073  -2.6013  -2.5994  -2.5989  -2.5979  -2.5975
     3.1334   3.2197   3.3051   3.3053   3.4354   3.4357   3.4778   3.4780
     3.4784   3.4808   3.5069   3.5071   3.5827   3.5829   3.6190   3.7341
     3.7373   3.7378   3.8054   3.8272   3.8277   3.8688   3.8692   3.8827
     3.8977   3.8980   4.0317   4.0322   4.2031   4.2033   4.2638   4.2639
     4.2721   4.2725   4.4160   4.4163   4.5304   4.7539   4.9561   4.9564
     5.0415   5.0416   5.0438   5.0609   5.0612   5.0687   5.0690   5.1553
     5.1958   5.2379   5.3657   5.3662   5.3670   5.3671   5.7036   5.7040
     5.7313   5.7316   5.8664   5.8667   5.8669   5.8674   5.9015   5.9125
     5.9370   5.9372   5.9443   5.9444   6.0320   6.0764   6.3088   6.3460
     6.5410   6.5413   6.5461   6.5466   6.5539   6.5830   6.5834   6.6136
     6.6138   6.6534   6.6656   6.7219   6.8009   6.8011   6.8431   6.8434
     6.9332   6.9714   6.9896   6.9899   6.9900   6.9958   7.0232   7.0236
     7.1987   7.2551   7.2677   7.2941   7.2943   7.3002   7.3006   7.3488
     7.4294   7.5447   7.5735   7.6758   8.0363   8.3973   8.4414   8.4415
     8.5372   8.6555   8.6556   8.9555   8.9556   9.0792   9.1121   9.1124
     9.1274   9.1277   9.2047   9.3007   9.3651   9.3718   9.4426   9.4430
     9.4741   9.4743   9.5401   9.5406   9.5820   9.6229   9.6926   9.6928
     9.7332   9.8583   9.9945   9.9949  10.2826  10.2829  10.3157  10.3507
    10.3511  10.3880  10.3881  10.3884  10.3886  10.3890  10.5896  10.6835
    10.7961  10.7965  10.7988  10.7995  10.8563  10.8566  10.8752  10.8757
    10.9435  10.9842  10.9844  11.0046  11.0187  11.1494  11.1499  11.1673
    11.1677  11.2215  11.2309  11.3603  11.3604  11.4108  11.4111  11.4115
    11.4116  11.4342  11.4569  11.5511  11.5740  11.6032  11.6798  11.7429
    11.8149  11.8253  11.8498  11.8915  11.8918  11.9871  11.9874  12.0540
    12.0903  12.1691  12.1839  12.3091  12.3095  12.3109  12.3113  12.3149
    12.3151  12.3354  12.3618  12.5171  12.5174  12.5305  12.5307  12.5551
    12.5807  12.6487  12.6491  12.6646  12.6700  12.6782  12.6786  12.6985

     occupation numbers 
     1.0000   1.0000   1.0000   1.0000   1.0000   1.0000   1.0000   1.0000
     1.0000   1.0000   1.0000   1.0000   1.0000   1.0000   1.0000   1.0000
     1.0000   1.0000   1.0000   1.0000   1.0000   1.0000   1.0000   1.0000
     1.0000   1.0000   1.0000   1.0000   1.0000   1.0000   1.0000   1.0000
     1.0000   1.0000   1.0000   1.0000   1.0000   1.0000   1.0000   1.0000
     1.0000   1.0000   1.0000   1.0000   1.0000   1.0000   1.0000   1.0000
     1.0000   1.0000   1.0000   1.0000   1.0000   1.0000   1.0000   1.0000
     1.0000   1.0000   1.0000   1.0000   1.0000   1.0000   1.0000   1.0000
     1.0000   1.0000   1.0000   1.0000   1.0000   1.0000   1.0000   1.0000
     1.0000   1.0000   1.0000   1.0000   1.0000   1.0000   1.0000   1.0000
     1.0000   1.0000   1.0000   1.0000   1.0000   1.0000   1.0000   1.0000
     1.0000   1.0000   1.0000   1.0000   1.0000   1.0000   1.0000   1.0000
     1.0000   1.0000   1.0000   1.0000   1.0000   1.0000   1.0000   1.0000
     1.0000   1.0000   1.0000   1.0000   1.0000   1.0000   1.0000   1.0000
     1.0000   1.0000   1.0000   1.0000   1.0000   1.0000   1.0000   1.0000
     1.0000   1.0000   1.0000   1.0000   1.0000   1.0000   1.0000   1.0000
     1.0000   1.0000   1.0000   1.0000   1.0000   1.0000   1.0000   1.0000
     1.0000   1.0000   1.0000   1.0000   1.0000   1.0000   1.0000   1.0000
     1.0000   1.0000   1.0000   1.0000   1.0000   1.0000   1.0000   1.0000
     1.0000   1.0000   1.0000   1.0000   1.0000   1.0000   1.0000   1.0000
     1.0000   1.0000   1.0000   1.0000   1.0000   1.0000   1.0000   1.0000
     1.0000   1.0000   1.0000   1.0000   1.0000   1.0000   1.0000   1.0000
     1.0000   1.0000   1.0000   1.0000   1.0000   1.0000   1.0000   1.0000
     1.0000   1.0000   1.0000   1.0000   1.0000   1.0000   1.0000   1.0000
     1.0000   1.0000   1.0000   1.0000   1.0000   1.0000   1.0000   1.0000
     1.0000   1.0000   1.0000   1.0000   1.0000   1.0000   1.0000   1.0000
     1.0000   1.0000   1.0000   1.0000   1.0000   1.0000   1.0000   1.0000
     1.0000   1.0000   1.0000   1.0000   1.0000   1.0000   1.0000   1.0000
     1.0000   1.0000   1.0000   1.0000   1.0000   1.0000   1.0000   1.0000
     1.0000   1.0000   1.0000   1.0000   1.0000   1.0000   1.0000   1.0000
     1.0000   1.0000   1.0000   1.0000   1.0000   1.0000   1.0000   1.0000
     1.0000   1.0000   1.0000   1.0000   1.0000   1.0000   1.0000   1.0000
     1.0000   1.0000   1.0000   1.0000   1.0000   1.0000   1.0000   1.0000
     1.0000   1.0000   1.0000   1.0000   1.0000   1.0000   1.0000   1.0000
     1.0000   1.0000   1.0000   1.0000   1.0000   1.0000   1.0000   1.0000
     1.0000   1.0000   1.0000   1.0000   1.0000   1.0000   1.0000   1.0000
     1.0000   1.0000   1.0000   1.0000   1.0000   1.0000   1.0000   1.0000
     1.0000   1.0000   1.0000   1.0000   1.0000   1.0000   1.0000   1.0000
     1.0000   1.0000   1.0000   1.0000   1.0000   1.0000   1.0000   1.0000
     1.0000   1.0000   1.0000   1.0000   1.0000   1.0000   1.0000   1.0000
     1.0000   1.0000   1.0000   1.0000   1.0000   1.0000   1.0000   1.0000
     1.0000   1.0000   1.0000   1.0000   1.0000   1.0000   1.0000   1.0000
     1.0000   1.0000   1.0000   1.0000   1.0000   1.0000   1.0000   1.0000
     1.0000   1.0000   1.0000   1.0000   1.0000   1.0000   1.0000   1.0000
     1.0000   1.0000   1.0000   1.0000   1.0000   1.0000   1.0000   1.0000
     1.0000   1.0000   1.0000   1.0000   1.0000   1.0000   1.0000   1.0000
     1.0000   1.0000   1.0000   1.0000   1.0000   1.0000   1.0000   1.0000
     1.0000   1.0000   1.0000   1.0000   1.0000   1.0000   1.0000   1.0000
     1.0000   1.0000   1.0000   1.0000   1.0000   1.0000   1.0000   1.0000
     1.0000   1.0000   1.0000   1.0000   1.0000   1.0000   1.0000   1.0000
     1.0000   1.0000   1.0000   1.0000   1.0000   1.0000   1.0000   1.0000
     1.0000   1.0000   1.0000   1.0000   1.0000   1.0000   1.0000   1.0000
     1.0000   1.0000   1.0000   1.0000   1.0000   1.0000   1.0000   1.0000
     1.0000   1.0000   1.0000   1.0000   1.0000   1.0000   1.0000   1.0000
     1.0000   1.0000   1.0000   1.0000   1.0000   1.0000   1.0000   1.0000
     1.0000   1.0000   1.0000   1.0000   1.0000   1.0000   1.0000   1.0000
     1.0000   1.0000   1.0000   1.0000   1.0000   1.0000   1.0000   1.0000
     1.0000   1.0000   1.0000   1.0000   1.0000   1.0000   1.0000   1.0000
     1.0000   1.0000   1.0000   1.0000   1.0000   1.0000   1.0000   1.0000
     1.0000   1.0000   1.0000   1.0000   1.0000   1.0000   1.0000   1.0000
     1.0000   1.0000   1.0000   1.0000   1.0000   1.0000   1.0000   1.0000
     1.0000   1.0000   1.0000   1.0000   1.0000   1.0000   1.0000   1.0000
     1.0000   1.0000   1.0000   1.0000   1.0000   1.0000   1.0000   1.0000
     1.0000   1.0000   1.0000   1.0000   1.0000   1.0000   1.0000   1.0000
     1.0000   1.0000   1.0000   1.0000   1.0000   1.0000   1.0000   1.0000
     1.0000   1.0000   1.0000   1.0000   1.0000   1.0000   1.0000   1.0000
     1.0000   1.0000   1.0000   1.0000   1.0000   1.0000   1.0000   1.0000
     1.0000   1.0000   1.0001   1.0037   0.1719  -0.0001  -0.0000  -0.0000
    -0.0000  -0.0000  -0.0000  -0.0000  -0.0000  -0.0000  -0.0000  -0.0000
    -0.0000  -0.0000  -0.0000  -0.0000  -0.0000  -0.0000  -0.0000  -0.0000
    -0.0000  -0.0000  -0.0000  -0.0000  -0.0000  -0.0000  -0.0000  -0.0000
    -0.0000  -0.0000  -0.0000  -0.0000  -0.0000  -0.0000  -0.0000  -0.0000
    -0.0000  -0.0000  -0.0000  -0.0000  -0.0000  -0.0000  -0.0000  -0.0000
    -0.0000  -0.0000  -0.0000  -0.0000  -0.0000  -0.0000  -0.0000  -0.0000
    -0.0000  -0.0000  -0.0000  -0.0000  -0.0000  -0.0000  -0.0000  -0.0000
    -0.0000  -0.0000  -0.0000  -0.0000  -0.0000  -0.0000  -0.0000  -0.0000
    -0.0000  -0.0000  -0.0000  -0.0000  -0.0000  -0.0000  -0.0000  -0.0000
    -0.0000  -0.0000  -0.0000  -0.0000  -0.0000  -0.0000  -0.0000  -0.0000
    -0.0000  -0.0000  -0.0000  -0.0000  -0.0000  -0.0000  -0.0000  -0.0000
    -0.0000  -0.0000  -0.0000  -0.0000  -0.0000  -0.0000  -0.0000  -0.0000
    -0.0000  -0.0000  -0.0000  -0.0000  -0.0000  -0.0000  -0.0000  -0.0000

          k = 0.0000-0.5774 0.0000 (554524 PWs)   bands (ev):

   -68.2859 -68.2855 -68.2851 -68.2849 -68.2847 -68.2846 -68.2846 -68.2846
   -68.2846 -68.2845 -68.2845 -68.2845 -68.2844 -68.2844 -68.2841 -68.2840
   -68.2838 -68.2835 -67.7455 -67.7452 -67.7450 -67.7447 -67.7445 -67.7444
   -67.7444 -67.7444 -67.7443 -67.7443 -67.7443 -67.7442 -67.7441 -67.7441
   -67.7441 -67.7441 -67.7440 -67.7440 -67.7439 -67.7438 -67.7438 -67.7437
   -67.7437 -67.7437 -67.7437 -67.7437 -67.7436 -67.7436 -67.7435 -67.7435
   -67.7435 -67.7434 -67.7433 -67.7433 -67.7433 -67.7428 -35.6969 -35.6966
   -35.6961 -35.6960 -35.6957 -35.6957 -35.6957 -35.6957 -35.6956 -35.6955
   -35.6955 -35.6955 -35.6955 -35.6954 -35.6952 -35.6950 -35.6949 -35.6946
   -35.6920 -35.6920 -35.6917 -35.6917 -35.6913 -35.6912 -35.6911 -35.6911
   -35.6908 -35.6908 -35.6908 -35.6908 -35.6908 -35.6908 -35.6907 -35.6907
   -35.6907 -35.6907 -35.6907 -35.6906 -35.6906 -35.6906 -35.6906 -35.6906
   -35.6906 -35.6905 -35.6905 -35.6905 -35.6903 -35.6903 -35.6902 -35.6901
   -35.6900 -35.6899 -35.6897 -35.6896 -35.1781 -35.1781 -35.1779 -35.1778
   -35.1777 -35.1777 -35.1775 -35.1775 -35.1775 -35.1775 -35.1774 -35.1774
   -35.1773 -35.1773 -35.1773 -35.1773 -35.1773 -35.1772 -35.1772 -35.1771
   -35.1771 -35.1770 -35.1770 -35.1770 -35.1770 -35.1770 -35.1770 -35.1770
   -35.1769 -35.1769 -35.1768 -35.1768 -35.1768 -35.1768 -35.1768 -35.1766
   -35.1763 -35.1762 -35.1760 -35.1759 -35.1759 -35.1759 -35.1758 -35.1758
   -35.1758 -35.1757 -35.1754 -35.1753 -35.1751 -35.1751 -35.1745 -35.1745
   -35.1743 -35.1743 -35.1711 -35.1710 -35.1710 -35.1708 -35.1708 -35.1707
   -35.1707 -35.1706 -35.1705 -35.1705 -35.1705 -35.1704 -35.1704 -35.1703
   -35.1703 -35.1703 -35.1703 -35.1703 -35.1703 -35.1702 -35.1702 -35.1700
   -35.1696 -35.1696 -35.1694 -35.1694 -35.1692 -35.1690 -35.1689 -35.1688
   -35.1687 -35.1686 -35.1686 -35.1686 -35.1686 -35.1686 -35.1685 -35.1685
   -35.1683 -35.1683 -35.1683 -35.1682 -35.1682 -35.1681 -35.1681 -35.1681
   -35.1681 -35.1681 -35.1681 -35.1680 -35.1680 -35.1680 -35.1680 -35.1676
   -14.2180 -14.2172 -14.2167 -14.2161 -14.2159 -14.2157 -14.2152 -14.2149
   -14.2149 -14.2147 -14.2147 -14.2145 -14.2144 -14.2142 -14.2142 -14.2139
   -14.2134 -14.2131 -14.2122 -14.2118 -14.2117 -14.2114 -14.2111 -14.2109
   -14.2107 -14.2105 -14.2105 -14.2104 -14.2103 -14.2103 -14.2101 -14.2100
   -14.2099 -14.2098 -14.2096 -14.2093 -14.2092 -14.2091 -14.2090 -14.2086
   -14.2084 -14.2083 -14.2082 -14.2081 -14.2080 -14.2078 -14.2078 -14.2078
   -14.2077 -14.2075 -14.2075 -14.2074 -14.2072 -14.2071 -14.2071 -14.2068
   -14.2066 -14.2064 -14.2064 -14.2062 -14.2060 -14.2057 -14.2053 -14.2052
   -14.2050 -14.2048 -14.2042 -14.2037 -14.2036 -14.2033 -14.2030 -14.2024
   -14.1900 -14.1885 -14.1880 -14.1877 -14.1876 -14.1873 -14.1873 -14.1869
   -14.1867 -14.1864 -14.1864 -14.1863 -14.1863 -14.1861 -14.1859 -14.1858
   -14.1855 -14.1854 -14.1853 -14.1852 -14.1851 -14.1849 -14.1846 -14.1844
   -14.1841 -14.1838 -14.1836 -14.1833 -14.1831 -14.1828 -14.1828 -14.1827
   -14.1827 -14.1823 -14.1820 -14.1806 -14.1745 -14.1744 -14.1736 -14.1735
   -14.1731 -14.1730 -14.1729 -14.1728 -14.1725 -14.1724 -14.1719 -14.1718
   -14.1717 -14.1717 -14.1715 -14.1713 -14.1712 -14.1710 -14.1705 -14.1705
   -14.1705 -14.1704 -14.1702 -14.1701 -14.1697 -14.1689 -14.1680 -14.1675
   -14.1674 -14.1672 -14.1671 -14.1666 -14.1665 -14.1664 -14.1663 -14.1662
   -14.1656 -14.1654 -14.1645 -14.1641 -14.1640 -14.1639 -14.1636 -14.1635
   -14.1633 -14.1632 -14.1624 -14.1622 -14.1618 -14.1615 -14.1612 -14.1609
   -14.1605 -14.1601 -14.1594 -14.1592 -14.1588 -14.1586 -14.1586 -14.1584
   -14.1583 -14.1582 -14.1581 -14.1578 -14.1576 -14.1574 -14.1571 -14.1570
   -14.1570 -14.1565 -14.1562 -14.1556  -3.5716  -3.5715  -3.3136  -3.3136
    -3.2957  -3.2952  -3.0767  -3.0763  -3.0223  -3.0221  -2.9089  -2.9084
    -2.9083  -2.9079  -2.8852  -2.8456  -2.8451  -2.7805  -2.7799  -2.7799
    -2.7794  -2.7650  -2.6758  -2.6695  -2.6689  -2.6688  -2.6682  -2.6654
    -2.6651  -2.5711  -2.5707  -2.5653  -2.5450  -2.5445  -2.5444  -2.5439
     2.9702   3.2044   3.2197   3.2202   3.2807   3.2809   3.2812   3.2813
     3.3888   3.5012   3.5017   3.5020   3.5021   3.5750   3.5753   3.5756
     3.5762   3.6928   3.6934   3.9518   3.9521   4.0313   4.0315   4.1587
     4.2800   4.2806   4.2809   4.2811   4.3694   4.3699   4.5498   4.5501
     4.5623   4.5626   4.5628   4.5636   4.6071   4.6073   4.6298   4.6303
     4.6858   4.9403   4.9404   4.9407   4.9408   5.0602   5.0604   5.0606
     5.0608   5.4195   5.4197   5.4968   5.4969   5.4972   5.4974   5.7070
     5.7998   5.8025   5.8028   6.0077   6.0079   6.0581   6.0583   6.0638
     6.0640   6.1150   6.1152   6.1156   6.1160   6.1336   6.1583   6.3349
     6.3351   6.3446   6.3447   6.3450   6.3452   6.4667   6.4671   6.4698
     6.4700   6.4894   6.4896   6.5017   6.5182   6.5183   6.5272   6.7379
     6.7380   6.7383   6.7385   6.8688   6.8689   6.8691   6.8695   6.9063
     6.9067   6.9243   6.9245   7.1516   7.1521   7.1859   7.1863   7.2638
     7.7356   7.7359   7.8221   7.8226   8.2802   8.4091   8.8507   8.8508
     8.8510   8.8513   9.0689   9.1753   9.1754   9.1757   9.1758   9.3658
     9.3659   9.5384   9.5387   9.6129   9.6131   9.6131   9.6136   9.6179
     9.6181   9.6217   9.6219   9.6281   9.6284   9.6652   9.7029  10.0583
    10.0584  10.0628  10.0630  10.0631  10.0635  10.2342  10.2488  10.4487
    10.4489  10.5444  10.5449  10.6255  10.6260  10.7825  10.7828  10.7897
    10.7902  10.7902  10.7904  10.8399  10.8403  10.8503  10.8696  10.8698
    10.9330  10.9331  10.9333  10.9334  11.0546  11.0548  11.0957  11.0958
    11.0959  11.0960  11.2566  11.2568  11.2789  11.2791  11.2797  11.2799
    11.3081  11.3082  11.3279  11.3280  11.3753  11.3757  11.4342  11.4349
    11.4974  11.4975  11.6019  11.6021  11.7054  11.7058  11.8305  11.8306
    11.8307  11.8312  11.9050  11.9052  12.0285  12.0288  12.0289  12.0290
    12.1193  12.1196  12.3008  12.3010  12.3508  12.3511  12.3532  12.3535
    12.4857  12.4860  12.5636  12.5637  12.5729  12.6900  12.6903  12.8097

     occupation numbers 
     1.0000   1.0000   1.0000   1.0000   1.0000   1.0000   1.0000   1.0000
     1.0000   1.0000   1.0000   1.0000   1.0000   1.0000   1.0000   1.0000
     1.0000   1.0000   1.0000   1.0000   1.0000   1.0000   1.0000   1.0000
     1.0000   1.0000   1.0000   1.0000   1.0000   1.0000   1.0000   1.0000
     1.0000   1.0000   1.0000   1.0000   1.0000   1.0000   1.0000   1.0000
     1.0000   1.0000   1.0000   1.0000   1.0000   1.0000   1.0000   1.0000
     1.0000   1.0000   1.0000   1.0000   1.0000   1.0000   1.0000   1.0000
     1.0000   1.0000   1.0000   1.0000   1.0000   1.0000   1.0000   1.0000
     1.0000   1.0000   1.0000   1.0000   1.0000   1.0000   1.0000   1.0000
     1.0000   1.0000   1.0000   1.0000   1.0000   1.0000   1.0000   1.0000
     1.0000   1.0000   1.0000   1.0000   1.0000   1.0000   1.0000   1.0000
     1.0000   1.0000   1.0000   1.0000   1.0000   1.0000   1.0000   1.0000
     1.0000   1.0000   1.0000   1.0000   1.0000   1.0000   1.0000   1.0000
     1.0000   1.0000   1.0000   1.0000   1.0000   1.0000   1.0000   1.0000
     1.0000   1.0000   1.0000   1.0000   1.0000   1.0000   1.0000   1.0000
     1.0000   1.0000   1.0000   1.0000   1.0000   1.0000   1.0000   1.0000
     1.0000   1.0000   1.0000   1.0000   1.0000   1.0000   1.0000   1.0000
     1.0000   1.0000   1.0000   1.0000   1.0000   1.0000   1.0000   1.0000
     1.0000   1.0000   1.0000   1.0000   1.0000   1.0000   1.0000   1.0000
     1.0000   1.0000   1.0000   1.0000   1.0000   1.0000   1.0000   1.0000
     1.0000   1.0000   1.0000   1.0000   1.0000   1.0000   1.0000   1.0000
     1.0000   1.0000   1.0000   1.0000   1.0000   1.0000   1.0000   1.0000
     1.0000   1.0000   1.0000   1.0000   1.0000   1.0000   1.0000   1.0000
     1.0000   1.0000   1.0000   1.0000   1.0000   1.0000   1.0000   1.0000
     1.0000   1.0000   1.0000   1.0000   1.0000   1.0000   1.0000   1.0000
     1.0000   1.0000   1.0000   1.0000   1.0000   1.0000   1.0000   1.0000
     1.0000   1.0000   1.0000   1.0000   1.0000   1.0000   1.0000   1.0000
     1.0000   1.0000   1.0000   1.0000   1.0000   1.0000   1.0000   1.0000
     1.0000   1.0000   1.0000   1.0000   1.0000   1.0000   1.0000   1.0000
     1.0000   1.0000   1.0000   1.0000   1.0000   1.0000   1.0000   1.0000
     1.0000   1.0000   1.0000   1.0000   1.0000   1.0000   1.0000   1.0000
     1.0000   1.0000   1.0000   1.0000   1.0000   1.0000   1.0000   1.0000
     1.0000   1.0000   1.0000   1.0000   1.0000   1.0000   1.0000   1.0000
     1.0000   1.0000   1.0000   1.0000   1.0000   1.0000   1.0000   1.0000
     1.0000   1.0000   1.0000   1.0000   1.0000   1.0000   1.0000   1.0000
     1.0000   1.0000   1.0000   1.0000   1.0000   1.0000   1.0000   1.0000
     1.0000   1.0000   1.0000   1.0000   1.0000   1.0000   1.0000   1.0000
     1.0000   1.0000   1.0000   1.0000   1.0000   1.0000   1.0000   1.0000
     1.0000   1.0000   1.0000   1.0000   1.0000   1.0000   1.0000   1.0000
     1.0000   1.0000   1.0000   1.0000   1.0000   1.0000   1.0000   1.0000
     1.0000   1.0000   1.0000   1.0000   1.0000   1.0000   1.0000   1.0000
     1.0000   1.0000   1.0000   1.0000   1.0000   1.0000   1.0000   1.0000
     1.0000   1.0000   1.0000   1.0000   1.0000   1.0000   1.0000   1.0000
     1.0000   1.0000   1.0000   1.0000   1.0000   1.0000   1.0000   1.0000
     1.0000   1.0000   1.0000   1.0000   1.0000   1.0000   1.0000   1.0000
     1.0000   1.0000   1.0000   1.0000   1.0000   1.0000   1.0000   1.0000
     1.0000   1.0000   1.0000   1.0000   1.0000   1.0000   1.0000   1.0000
     1.0000   1.0000   1.0000   1.0000   1.0000   1.0000   1.0000   1.0000
     1.0000   1.0000   1.0000   1.0000   1.0000   1.0000   1.0000   1.0000
     1.0000   1.0000   1.0000   1.0000   1.0000   1.0000   1.0000   1.0000
     1.0000   1.0000   1.0000   1.0000   1.0000   1.0000   1.0000   1.0000
     1.0000   1.0000   1.0000   1.0000   1.0000   1.0000   1.0000   1.0000
     1.0000   1.0000   1.0000   1.0000   1.0000   1.0000   1.0000   1.0000
     1.0000   1.0000   1.0000   1.0000   1.0000   1.0000   1.0000   1.0000
     1.0000   1.0000   1.0000   1.0000   1.0000   1.0000   1.0000   1.0000
     1.0000   1.0000   1.0000   1.0000   1.0000   1.0000   1.0000   1.0000
     1.0000   1.0000   1.0000   1.0000   1.0000   1.0000   1.0000   1.0000
     1.0000   1.0000   1.0000   1.0000   1.0000   1.0000   1.0000   1.0000
     1.0000   1.0000   1.0000   1.0000   1.0000   1.0000   1.0000   1.0000
     1.0000   1.0000   1.0000   1.0000   1.0000   1.0000   1.0000   1.0000
     1.0000   1.0000   1.0000   1.0000   1.0000   1.0000   1.0000   1.0000
     1.0000   1.0000   1.0000   1.0000   1.0000   1.0000   1.0000   1.0000
     1.0000   1.0000   1.0000   1.0000   1.0000   1.0000   1.0000   1.0000
     1.0000   1.0000   1.0000   1.0000   1.0000   1.0000   1.0000   1.0000
     1.0000   1.0000   1.0000   1.0000   1.0000   1.0000   1.0000   1.0000
     1.0000   1.0000   1.0000   1.0000   1.0000   1.0000   1.0000   1.0000
     1.0000   1.0000   1.0000   1.0000   1.0000   1.0000   1.0000   1.0000
     1.0151   1.0152   1.0344   1.0343  -0.0037  -0.0000  -0.0000  -0.0000
    -0.0000  -0.0000  -0.0000  -0.0000  -0.0000  -0.0000  -0.0000  -0.0000
    -0.0000  -0.0000  -0.0000  -0.0000  -0.0000  -0.0000  -0.0000  -0.0000
    -0.0000  -0.0000  -0.0000  -0.0000  -0.0000  -0.0000  -0.0000  -0.0000
    -0.0000  -0.0000  -0.0000  -0.0000  -0.0000  -0.0000  -0.0000  -0.0000
    -0.0000  -0.0000  -0.0000  -0.0000  -0.0000  -0.0000  -0.0000  -0.0000
    -0.0000  -0.0000  -0.0000  -0.0000  -0.0000  -0.0000  -0.0000  -0.0000
    -0.0000  -0.0000  -0.0000  -0.0000  -0.0000  -0.0000  -0.0000  -0.0000
    -0.0000  -0.0000  -0.0000  -0.0000  -0.0000  -0.0000  -0.0000  -0.0000
    -0.0000  -0.0000  -0.0000  -0.0000  -0.0000  -0.0000  -0.0000  -0.0000
    -0.0000  -0.0000  -0.0000  -0.0000  -0.0000  -0.0000  -0.0000  -0.0000
    -0.0000  -0.0000  -0.0000  -0.0000  -0.0000  -0.0000  -0.0000  -0.0000
    -0.0000  -0.0000  -0.0000  -0.0000  -0.0000  -0.0000  -0.0000  -0.0000
    -0.0000  -0.0000  -0.0000  -0.0000  -0.0000  -0.0000  -0.0000  -0.0000

          k = 0.0000-0.5774 0.2373 (554574 PWs)   bands (ev):

   -68.2859 -68.2855 -68.2851 -68.2849 -68.2847 -68.2846 -68.2846 -68.2846
   -68.2846 -68.2845 -68.2845 -68.2845 -68.2844 -68.2844 -68.2841 -68.2840
   -68.2838 -68.2835 -67.7455 -67.7452 -67.7450 -67.7447 -67.7445 -67.7444
   -67.7444 -67.7444 -67.7443 -67.7443 -67.7443 -67.7442 -67.7441 -67.7441
   -67.7441 -67.7441 -67.7440 -67.7440 -67.7439 -67.7438 -67.7438 -67.7437
   -67.7437 -67.7437 -67.7437 -67.7437 -67.7436 -67.7436 -67.7435 -67.7435
   -67.7435 -67.7434 -67.7433 -67.7433 -67.7433 -67.7428 -35.6969 -35.6966
   -35.6961 -35.6960 -35.6957 -35.6957 -35.6957 -35.6957 -35.6956 -35.6955
   -35.6955 -35.6955 -35.6955 -35.6954 -35.6952 -35.6950 -35.6949 -35.6946
   -35.6920 -35.6920 -35.6917 -35.6917 -35.6913 -35.6912 -35.6911 -35.6911
   -35.6908 -35.6908 -35.6908 -35.6908 -35.6908 -35.6908 -35.6907 -35.6907
   -35.6907 -35.6907 -35.6907 -35.6906 -35.6906 -35.6906 -35.6906 -35.6906
   -35.6906 -35.6905 -35.6905 -35.6905 -35.6903 -35.6903 -35.6902 -35.6901
   -35.6900 -35.6899 -35.6897 -35.6896 -35.1781 -35.1781 -35.1779 -35.1778
   -35.1777 -35.1777 -35.1775 -35.1775 -35.1775 -35.1775 -35.1774 -35.1774
   -35.1773 -35.1773 -35.1773 -35.1773 -35.1773 -35.1772 -35.1772 -35.1771
   -35.1771 -35.1770 -35.1770 -35.1770 -35.1770 -35.1770 -35.1770 -35.1770
   -35.1769 -35.1769 -35.1768 -35.1768 -35.1768 -35.1768 -35.1768 -35.1766
   -35.1763 -35.1762 -35.1760 -35.1759 -35.1759 -35.1759 -35.1758 -35.1758
   -35.1758 -35.1757 -35.1754 -35.1753 -35.1751 -35.1751 -35.1745 -35.1745
   -35.1743 -35.1743 -35.1711 -35.1710 -35.1710 -35.1708 -35.1708 -35.1707
   -35.1707 -35.1706 -35.1705 -35.1705 -35.1705 -35.1704 -35.1704 -35.1703
   -35.1703 -35.1703 -35.1703 -35.1703 -35.1703 -35.1702 -35.1702 -35.1700
   -35.1696 -35.1696 -35.1694 -35.1694 -35.1692 -35.1690 -35.1689 -35.1688
   -35.1687 -35.1686 -35.1686 -35.1686 -35.1686 -35.1686 -35.1685 -35.1685
   -35.1683 -35.1683 -35.1683 -35.1682 -35.1682 -35.1681 -35.1681 -35.1681
   -35.1681 -35.1681 -35.1681 -35.1680 -35.1680 -35.1680 -35.1680 -35.1676
   -14.2180 -14.2172 -14.2167 -14.2162 -14.2158 -14.2156 -14.2151 -14.2150
   -14.2150 -14.2148 -14.2147 -14.2146 -14.2144 -14.2143 -14.2142 -14.2140
   -14.2135 -14.2129 -14.2122 -14.2118 -14.2116 -14.2113 -14.2111 -14.2109
   -14.2107 -14.2105 -14.2104 -14.2103 -14.2103 -14.2102 -14.2101 -14.2099
   -14.2098 -14.2097 -14.2096 -14.2094 -14.2092 -14.2091 -14.2089 -14.2086
   -14.2085 -14.2084 -14.2083 -14.2082 -14.2081 -14.2079 -14.2079 -14.2079
   -14.2078 -14.2077 -14.2076 -14.2075 -14.2074 -14.2073 -14.2072 -14.2069
   -14.2066 -14.2063 -14.2063 -14.2062 -14.2058 -14.2057 -14.2051 -14.2050
   -14.2047 -14.2045 -14.2040 -14.2038 -14.2038 -14.2034 -14.2031 -14.2025
   -14.1900 -14.1885 -14.1879 -14.1878 -14.1876 -14.1874 -14.1872 -14.1868
   -14.1866 -14.1866 -14.1865 -14.1864 -14.1862 -14.1861 -14.1858 -14.1858
   -14.1856 -14.1856 -14.1854 -14.1853 -14.1852 -14.1849 -14.1846 -14.1844
   -14.1841 -14.1838 -14.1835 -14.1833 -14.1830 -14.1828 -14.1828 -14.1827
   -14.1827 -14.1822 -14.1820 -14.1806 -14.1746 -14.1744 -14.1736 -14.1736
   -14.1731 -14.1730 -14.1728 -14.1728 -14.1725 -14.1724 -14.1719 -14.1718
   -14.1717 -14.1716 -14.1715 -14.1714 -14.1711 -14.1709 -14.1707 -14.1707
   -14.1706 -14.1704 -14.1703 -14.1701 -14.1697 -14.1689 -14.1680 -14.1675
   -14.1674 -14.1672 -14.1670 -14.1667 -14.1666 -14.1665 -14.1663 -14.1662
   -14.1656 -14.1653 -14.1645 -14.1642 -14.1641 -14.1640 -14.1636 -14.1635
   -14.1633 -14.1631 -14.1625 -14.1622 -14.1618 -14.1615 -14.1612 -14.1610
   -14.1604 -14.1601 -14.1594 -14.1591 -14.1588 -14.1586 -14.1585 -14.1583
   -14.1582 -14.1581 -14.1580 -14.1577 -14.1577 -14.1575 -14.1572 -14.1571
   -14.1570 -14.1566 -14.1563 -14.1557  -3.5472  -3.5469  -3.3785  -3.3778
    -3.2747  -3.2743  -3.1312  -3.1308  -2.9442  -2.9432  -2.8967  -2.8963
    -2.8950  -2.8946  -2.8735  -2.8133  -2.8128  -2.8099  -2.8095  -2.7952
    -2.7830  -2.7826  -2.7052  -2.7046  -2.6470  -2.6400  -2.6396  -2.6362
    -2.6357  -2.6003  -2.5999  -2.5756  -2.5578  -2.5574  -2.5557  -2.5552
     2.9833   3.1461   3.2636   3.2638   3.3104   3.3226   3.3296   3.3297
     3.4256   3.4259   3.4783   3.4786   3.4848   3.6191   3.6195   3.6902
     3.6906   3.6916   3.6922   3.8175   3.8177   3.9697   4.0122   4.0133
     4.0702   4.0706   4.1144   4.1148   4.2046   4.2048   4.5109   4.5111
     4.6860   4.6864   4.7778   4.7782   4.8195   4.8197   4.8396   4.8693
     4.8696   4.8780   4.8782   4.9401   5.0465   5.0536   5.0541   5.1605
     5.1606   5.4185   5.4680   5.6243   5.6248   5.6339   5.6344   5.6747
     5.6750   5.7439   5.7581   5.7872   5.7874   5.9128   5.9130   5.9462
     5.9665   5.9829   6.0130   6.0334   6.0915   6.1839   6.1843   6.1976
     6.1978   6.2004   6.2010   6.2035   6.2038   6.3700   6.3702   6.3799
     6.3803   6.3896   6.3898   6.5378   6.5647   6.6646   6.7355   6.7591
     6.8096   6.8299   6.8328   6.8330   6.9131   7.0382   7.0385   7.0883
     7.0885   7.0916   7.0921   7.1694   7.2371   7.3058   7.3062   7.3442
     7.6371   7.6665   7.7072   7.7149   8.1103   8.2613   8.8837   8.8838
     8.9537   8.9540   9.0144   9.0147   9.1440   9.2012   9.2600   9.2602
     9.3138   9.3346   9.4985   9.4987   9.5048   9.6493   9.6632   9.6634
     9.6828   9.7317   9.7390   9.7391   9.9951  10.0622  10.1004  10.1006
    10.1213  10.1216  10.1240  10.1931  10.1934  10.2727  10.2732  10.4619
    10.4621  10.4828  10.4832  10.5846  10.5850  10.6290  10.6292  10.6364
    10.6378  10.6480  10.6482  10.7243  10.7247  10.7557  10.7559  10.7570
    10.7574  10.8788  10.8825  10.9121  10.9125  11.0198  11.0218  11.0223
    11.0299  11.0466  11.0947  11.1420  11.1423  11.2232  11.3120  11.3535
    11.3540  11.3668  11.4251  11.4561  11.4563  11.4571  11.4573  11.4933
    11.4936  11.5194  11.5590  11.5593  11.5866  11.6682  11.7478  11.7847
    11.7934  11.9814  11.9971  12.0198  12.0200  12.1006  12.2392  12.2393
    12.2957  12.2969  12.2974  12.3263  12.3264  12.3471  12.3476  12.3719
    12.3723  12.3903  12.4336  12.5251  12.5307  12.5863  12.6548  12.7082

     occupation numbers 
     1.0000   1.0000   1.0000   1.0000   1.0000   1.0000   1.0000   1.0000
     1.0000   1.0000   1.0000   1.0000   1.0000   1.0000   1.0000   1.0000
     1.0000   1.0000   1.0000   1.0000   1.0000   1.0000   1.0000   1.0000
     1.0000   1.0000   1.0000   1.0000   1.0000   1.0000   1.0000   1.0000
     1.0000   1.0000   1.0000   1.0000   1.0000   1.0000   1.0000   1.0000
     1.0000   1.0000   1.0000   1.0000   1.0000   1.0000   1.0000   1.0000
     1.0000   1.0000   1.0000   1.0000   1.0000   1.0000   1.0000   1.0000
     1.0000   1.0000   1.0000   1.0000   1.0000   1.0000   1.0000   1.0000
     1.0000   1.0000   1.0000   1.0000   1.0000   1.0000   1.0000   1.0000
     1.0000   1.0000   1.0000   1.0000   1.0000   1.0000   1.0000   1.0000
     1.0000   1.0000   1.0000   1.0000   1.0000   1.0000   1.0000   1.0000
     1.0000   1.0000   1.0000   1.0000   1.0000   1.0000   1.0000   1.0000
     1.0000   1.0000   1.0000   1.0000   1.0000   1.0000   1.0000   1.0000
     1.0000   1.0000   1.0000   1.0000   1.0000   1.0000   1.0000   1.0000
     1.0000   1.0000   1.0000   1.0000   1.0000   1.0000   1.0000   1.0000
     1.0000   1.0000   1.0000   1.0000   1.0000   1.0000   1.0000   1.0000
     1.0000   1.0000   1.0000   1.0000   1.0000   1.0000   1.0000   1.0000
     1.0000   1.0000   1.0000   1.0000   1.0000   1.0000   1.0000   1.0000
     1.0000   1.0000   1.0000   1.0000   1.0000   1.0000   1.0000   1.0000
     1.0000   1.0000   1.0000   1.0000   1.0000   1.0000   1.0000   1.0000
     1.0000   1.0000   1.0000   1.0000   1.0000   1.0000   1.0000   1.0000
     1.0000   1.0000   1.0000   1.0000   1.0000   1.0000   1.0000   1.0000
     1.0000   1.0000   1.0000   1.0000   1.0000   1.0000   1.0000   1.0000
     1.0000   1.0000   1.0000   1.0000   1.0000   1.0000   1.0000   1.0000
     1.0000   1.0000   1.0000   1.0000   1.0000   1.0000   1.0000   1.0000
     1.0000   1.0000   1.0000   1.0000   1.0000   1.0000   1.0000   1.0000
     1.0000   1.0000   1.0000   1.0000   1.0000   1.0000   1.0000   1.0000
     1.0000   1.0000   1.0000   1.0000   1.0000   1.0000   1.0000   1.0000
     1.0000   1.0000   1.0000   1.0000   1.0000   1.0000   1.0000   1.0000
     1.0000   1.0000   1.0000   1.0000   1.0000   1.0000   1.0000   1.0000
     1.0000   1.0000   1.0000   1.0000   1.0000   1.0000   1.0000   1.0000
     1.0000   1.0000   1.0000   1.0000   1.0000   1.0000   1.0000   1.0000
     1.0000   1.0000   1.0000   1.0000   1.0000   1.0000   1.0000   1.0000
     1.0000   1.0000   1.0000   1.0000   1.0000   1.0000   1.0000   1.0000
     1.0000   1.0000   1.0000   1.0000   1.0000   1.0000   1.0000   1.0000
     1.0000   1.0000   1.0000   1.0000   1.0000   1.0000   1.0000   1.0000
     1.0000   1.0000   1.0000   1.0000   1.0000   1.0000   1.0000   1.0000
     1.0000   1.0000   1.0000   1.0000   1.0000   1.0000   1.0000   1.0000
     1.0000   1.0000   1.0000   1.0000   1.0000   1.0000   1.0000   1.0000
     1.0000   1.0000   1.0000   1.0000   1.0000   1.0000   1.0000   1.0000
     1.0000   1.0000   1.0000   1.0000   1.0000   1.0000   1.0000   1.0000
     1.0000   1.0000   1.0000   1.0000   1.0000   1.0000   1.0000   1.0000
     1.0000   1.0000   1.0000   1.0000   1.0000   1.0000   1.0000   1.0000
     1.0000   1.0000   1.0000   1.0000   1.0000   1.0000   1.0000   1.0000
     1.0000   1.0000   1.0000   1.0000   1.0000   1.0000   1.0000   1.0000
     1.0000   1.0000   1.0000   1.0000   1.0000   1.0000   1.0000   1.0000
     1.0000   1.0000   1.0000   1.0000   1.0000   1.0000   1.0000   1.0000
     1.0000   1.0000   1.0000   1.0000   1.0000   1.0000   1.0000   1.0000
     1.0000   1.0000   1.0000   1.0000   1.0000   1.0000   1.0000   1.0000
     1.0000   1.0000   1.0000   1.0000   1.0000   1.0000   1.0000   1.0000
     1.0000   1.0000   1.0000   1.0000   1.0000   1.0000   1.0000   1.0000
     1.0000   1.0000   1.0000   1.0000   1.0000   1.0000   1.0000   1.0000
     1.0000   1.0000   1.0000   1.0000   1.0000   1.0000   1.0000   1.0000
     1.0000   1.0000   1.0000   1.0000   1.0000   1.0000   1.0000   1.0000
     1.0000   1.0000   1.0000   1.0000   1.0000   1.0000   1.0000   1.0000
     1.0000   1.0000   1.0000   1.0000   1.0000   1.0000   1.0000   1.0000
     1.0000   1.0000   1.0000   1.0000   1.0000   1.0000   1.0000   1.0000
     1.0000   1.0000   1.0000   1.0000   1.0000   1.0000   1.0000   1.0000
     1.0000   1.0000   1.0000   1.0000   1.0000   1.0000   1.0000   1.0000
     1.0000   1.0000   1.0000   1.0000   1.0000   1.0000   1.0000   1.0000
     1.0000   1.0000   1.0000   1.0000   1.0000   1.0000   1.0000   1.0000
     1.0000   1.0000   1.0000   1.0000   1.0000   1.0000   1.0000   1.0000
     1.0000   1.0000   1.0000   1.0000   1.0000   1.0000   1.0000   1.0000
     1.0000   1.0000   1.0000   1.0000   1.0000   1.0000   1.0000   1.0000
     1.0000   1.0000   1.0000   1.0000   1.0000   1.0000   1.0000   1.0000
     1.0000   1.0000   1.0000   1.0000   1.0000   1.0000   1.0000   1.0000
     1.0000   1.0000   1.0000   1.0000   1.0000   1.0000   1.0000   1.0000
     1.0011   1.0028   1.0082   1.0098  -0.0220  -0.0061  -0.0000  -0.0000
    -0.0000  -0.0000  -0.0000  -0.0000  -0.0000  -0.0000  -0.0000  -0.0000
    -0.0000  -0.0000  -0.0000  -0.0000  -0.0000  -0.0000  -0.0000  -0.0000
    -0.0000  -0.0000  -0.0000  -0.0000  -0.0000  -0.0000  -0.0000  -0.0000
    -0.0000  -0.0000  -0.0000  -0.0000  -0.0000  -0.0000  -0.0000  -0.0000
    -0.0000  -0.0000  -0.0000  -0.0000  -0.0000  -0.0000  -0.0000  -0.0000
    -0.0000  -0.0000  -0.0000  -0.0000  -0.0000  -0.0000  -0.0000  -0.0000
    -0.0000  -0.0000  -0.0000  -0.0000  -0.0000  -0.0000  -0.0000  -0.0000
    -0.0000  -0.0000  -0.0000  -0.0000  -0.0000  -0.0000  -0.0000  -0.0000
    -0.0000  -0.0000  -0.0000  -0.0000  -0.0000  -0.0000  -0.0000  -0.0000
    -0.0000  -0.0000  -0.0000  -0.0000  -0.0000  -0.0000  -0.0000  -0.0000
    -0.0000  -0.0000  -0.0000  -0.0000  -0.0000  -0.0000  -0.0000  -0.0000
    -0.0000  -0.0000  -0.0000  -0.0000  -0.0000  -0.0000  -0.0000  -0.0000
    -0.0000  -0.0000  -0.0000  -0.0000  -0.0000  -0.0000  -0.0000  -0.0000

          k = 0.0000-0.5774-0.4746 (554528 PWs)   bands (ev):

   -68.2859 -68.2855 -68.2851 -68.2849 -68.2847 -68.2846 -68.2846 -68.2846
   -68.2846 -68.2845 -68.2845 -68.2845 -68.2844 -68.2844 -68.2841 -68.2840
   -68.2838 -68.2835 -67.7455 -67.7452 -67.7450 -67.7447 -67.7445 -67.7444
   -67.7444 -67.7444 -67.7443 -67.7443 -67.7443 -67.7442 -67.7441 -67.7441
   -67.7441 -67.7441 -67.7440 -67.7440 -67.7439 -67.7438 -67.7438 -67.7437
   -67.7437 -67.7437 -67.7437 -67.7437 -67.7436 -67.7436 -67.7435 -67.7435
   -67.7435 -67.7434 -67.7433 -67.7433 -67.7433 -67.7428 -35.6969 -35.6966
   -35.6961 -35.6960 -35.6957 -35.6957 -35.6957 -35.6957 -35.6956 -35.6955
   -35.6955 -35.6955 -35.6955 -35.6954 -35.6952 -35.6950 -35.6949 -35.6946
   -35.6920 -35.6920 -35.6917 -35.6917 -35.6913 -35.6912 -35.6911 -35.6911
   -35.6908 -35.6908 -35.6908 -35.6908 -35.6908 -35.6908 -35.6907 -35.6907
   -35.6907 -35.6907 -35.6907 -35.6906 -35.6906 -35.6906 -35.6906 -35.6906
   -35.6906 -35.6905 -35.6905 -35.6905 -35.6903 -35.6903 -35.6902 -35.6901
   -35.6900 -35.6899 -35.6897 -35.6896 -35.1781 -35.1781 -35.1779 -35.1778
   -35.1777 -35.1777 -35.1775 -35.1775 -35.1775 -35.1775 -35.1774 -35.1774
   -35.1773 -35.1773 -35.1773 -35.1773 -35.1773 -35.1772 -35.1772 -35.1771
   -35.1771 -35.1770 -35.1770 -35.1770 -35.1770 -35.1770 -35.1770 -35.1770
   -35.1769 -35.1769 -35.1768 -35.1768 -35.1768 -35.1768 -35.1768 -35.1766
   -35.1763 -35.1762 -35.1760 -35.1759 -35.1759 -35.1759 -35.1758 -35.1758
   -35.1758 -35.1757 -35.1754 -35.1753 -35.1751 -35.1751 -35.1745 -35.1745
   -35.1743 -35.1743 -35.1711 -35.1710 -35.1710 -35.1708 -35.1708 -35.1707
   -35.1707 -35.1706 -35.1705 -35.1705 -35.1705 -35.1704 -35.1704 -35.1703
   -35.1703 -35.1703 -35.1703 -35.1703 -35.1703 -35.1702 -35.1702 -35.1700
   -35.1696 -35.1696 -35.1694 -35.1694 -35.1692 -35.1690 -35.1689 -35.1688
   -35.1687 -35.1686 -35.1686 -35.1686 -35.1686 -35.1686 -35.1685 -35.1685
   -35.1683 -35.1683 -35.1683 -35.1682 -35.1682 -35.1681 -35.1681 -35.1681
   -35.1681 -35.1681 -35.1681 -35.1680 -35.1680 -35.1680 -35.1680 -35.1676
   -14.2179 -14.2172 -14.2167 -14.2162 -14.2156 -14.2154 -14.2152 -14.2151
   -14.2149 -14.2149 -14.2148 -14.2146 -14.2145 -14.2143 -14.2142 -14.2140
   -14.2133 -14.2129 -14.2122 -14.2119 -14.2116 -14.2113 -14.2109 -14.2106
   -14.2106 -14.2106 -14.2106 -14.2104 -14.2103 -14.2102 -14.2100 -14.2097
   -14.2097 -14.2096 -14.2095 -14.2093 -14.2093 -14.2092 -14.2090 -14.2087
   -14.2085 -14.2083 -14.2083 -14.2081 -14.2081 -14.2080 -14.2080 -14.2079
   -14.2079 -14.2079 -14.2078 -14.2077 -14.2076 -14.2075 -14.2074 -14.2069
   -14.2066 -14.2063 -14.2062 -14.2061 -14.2058 -14.2057 -14.2048 -14.2047
   -14.2044 -14.2043 -14.2041 -14.2040 -14.2038 -14.2035 -14.2031 -14.2027
   -14.1899 -14.1884 -14.1879 -14.1878 -14.1877 -14.1873 -14.1871 -14.1868
   -14.1867 -14.1866 -14.1865 -14.1864 -14.1861 -14.1860 -14.1858 -14.1858
   -14.1857 -14.1857 -14.1855 -14.1854 -14.1853 -14.1849 -14.1846 -14.1843
   -14.1841 -14.1838 -14.1835 -14.1832 -14.1830 -14.1828 -14.1827 -14.1827
   -14.1827 -14.1821 -14.1821 -14.1806 -14.1746 -14.1744 -14.1737 -14.1736
   -14.1731 -14.1730 -14.1728 -14.1728 -14.1725 -14.1723 -14.1719 -14.1718
   -14.1717 -14.1715 -14.1714 -14.1712 -14.1710 -14.1710 -14.1709 -14.1708
   -14.1708 -14.1705 -14.1703 -14.1701 -14.1697 -14.1690 -14.1680 -14.1674
   -14.1673 -14.1671 -14.1670 -14.1668 -14.1665 -14.1664 -14.1663 -14.1662
   -14.1655 -14.1653 -14.1646 -14.1643 -14.1643 -14.1641 -14.1635 -14.1634
   -14.1632 -14.1631 -14.1625 -14.1622 -14.1618 -14.1615 -14.1613 -14.1610
   -14.1604 -14.1600 -14.1594 -14.1591 -14.1587 -14.1586 -14.1583 -14.1583
   -14.1581 -14.1579 -14.1579 -14.1578 -14.1576 -14.1575 -14.1574 -14.1573
   -14.1570 -14.1566 -14.1564 -14.1558  -3.4779  -3.4775  -3.4770  -3.4764
    -3.2158  -3.2150  -3.2147  -3.2142  -2.8625  -2.8616  -2.8615  -2.8614
    -2.8591  -2.8589  -2.8587  -2.8580  -2.8410  -2.8402  -2.8111  -2.8107
    -2.8098  -2.8093  -2.6803  -2.6795  -2.6792  -2.6787  -2.6054  -2.6045
    -2.5929  -2.5926  -2.5923  -2.5918  -2.5892  -2.5887  -2.5886  -2.5881
     3.0439   3.0448   3.3181   3.3187   3.3189   3.3193   3.3961   3.3966
     3.3968   3.3971   3.5758   3.5764   3.6020   3.6026   3.7188   3.7191
     3.7192   3.7201   3.7252   3.7261   3.8095   3.8101   3.8104   3.8107
     3.8946   3.8954   3.8955   3.8957   4.3933   4.3937   4.3941   4.3943
     4.7768   4.7770   4.7771   4.7778   4.8172   4.8176   4.8177   4.8180
     5.1583   5.1587   5.1590   5.1591   5.2399   5.2404   5.3062   5.3064
     5.4484   5.4486   5.5435   5.5441   5.5443   5.5448   5.5494   5.5497
     5.5498   5.5503   5.7817   5.7819   5.7906   5.7909   5.7914   5.7917
     5.8507   5.8517   5.8987   5.8989   5.9367   5.9368   5.9371   5.9373
     5.9586   5.9587   5.9590   5.9594   6.5061   6.5066   6.6131   6.6135
     6.6141   6.6144   6.6211   6.6214   6.6734   6.6740   6.7991   6.7994
     6.7995   6.8001   6.8193   6.8196   6.8197   6.8204   6.9363   6.9373
     7.2861   7.2865   7.3787   7.3790   7.3808   7.3810   7.3812   7.3821
     7.4503   7.4509   7.5589   7.5592   8.1256   8.1261   9.0312   9.0314
     9.0315   9.0318   9.0736   9.0739   9.1606   9.1609   9.2620   9.2621
     9.2623   9.2627   9.4777   9.4777   9.4779   9.4782   9.5652   9.5654
     9.9643   9.9645  10.0610  10.0612  10.1397  10.1401  10.1401  10.1405
    10.1754  10.1757  10.1758  10.1767  10.2081  10.2085  10.2086  10.2090
    10.2803  10.2804  10.2808  10.2808  10.4241  10.4244  10.4246  10.4247
    10.6647  10.6651  10.6651  10.6654  10.6861  10.6863  10.7728  10.7730
    10.9392  10.9392  10.9394  10.9398  11.1128  11.1133  11.1260  11.1266
    11.1267  11.1270  11.1980  11.1986  11.2371  11.2373  11.3355  11.3357
    11.4379  11.4382  11.4687  11.4688  11.4689  11.4694  11.4746  11.4752
    11.4788  11.4790  11.4791  11.4797  11.6200  11.6201  11.7423  11.7426
    11.7741  11.7742  11.8553  11.8557  11.8558  11.8561  12.0505  12.0509
    12.0573  12.0577  12.0579  12.0581  12.1867  12.1872  12.1873  12.1875
    12.4679  12.4686  12.6122  12.6126  12.7253  12.7254  12.7422  12.7425

     occupation numbers 
     1.0000   1.0000   1.0000   1.0000   1.0000   1.0000   1.0000   1.0000
     1.0000   1.0000   1.0000   1.0000   1.0000   1.0000   1.0000   1.0000
     1.0000   1.0000   1.0000   1.0000   1.0000   1.0000   1.0000   1.0000
     1.0000   1.0000   1.0000   1.0000   1.0000   1.0000   1.0000   1.0000
     1.0000   1.0000   1.0000   1.0000   1.0000   1.0000   1.0000   1.0000
     1.0000   1.0000   1.0000   1.0000   1.0000   1.0000   1.0000   1.0000
     1.0000   1.0000   1.0000   1.0000   1.0000   1.0000   1.0000   1.0000
     1.0000   1.0000   1.0000   1.0000   1.0000   1.0000   1.0000   1.0000
     1.0000   1.0000   1.0000   1.0000   1.0000   1.0000   1.0000   1.0000
     1.0000   1.0000   1.0000   1.0000   1.0000   1.0000   1.0000   1.0000
     1.0000   1.0000   1.0000   1.0000   1.0000   1.0000   1.0000   1.0000
     1.0000   1.0000   1.0000   1.0000   1.0000   1.0000   1.0000   1.0000
     1.0000   1.0000   1.0000   1.0000   1.0000   1.0000   1.0000   1.0000
     1.0000   1.0000   1.0000   1.0000   1.0000   1.0000   1.0000   1.0000
     1.0000   1.0000   1.0000   1.0000   1.0000   1.0000   1.0000   1.0000
     1.0000   1.0000   1.0000   1.0000   1.0000   1.0000   1.0000   1.0000
     1.0000   1.0000   1.0000   1.0000   1.0000   1.0000   1.0000   1.0000
     1.0000   1.0000   1.0000   1.0000   1.0000   1.0000   1.0000   1.0000
     1.0000   1.0000   1.0000   1.0000   1.0000   1.0000   1.0000   1.0000
     1.0000   1.0000   1.0000   1.0000   1.0000   1.0000   1.0000   1.0000
     1.0000   1.0000   1.0000   1.0000   1.0000   1.0000   1.0000   1.0000
     1.0000   1.0000   1.0000   1.0000   1.0000   1.0000   1.0000   1.0000
     1.0000   1.0000   1.0000   1.0000   1.0000   1.0000   1.0000   1.0000
     1.0000   1.0000   1.0000   1.0000   1.0000   1.0000   1.0000   1.0000
     1.0000   1.0000   1.0000   1.0000   1.0000   1.0000   1.0000   1.0000
     1.0000   1.0000   1.0000   1.0000   1.0000   1.0000   1.0000   1.0000
     1.0000   1.0000   1.0000   1.0000   1.0000   1.0000   1.0000   1.0000
     1.0000   1.0000   1.0000   1.0000   1.0000   1.0000   1.0000   1.0000
     1.0000   1.0000   1.0000   1.0000   1.0000   1.0000   1.0000   1.0000
     1.0000   1.0000   1.0000   1.0000   1.0000   1.0000   1.0000   1.0000
     1.0000   1.0000   1.0000   1.0000   1.0000   1.0000   1.0000   1.0000
     1.0000   1.0000   1.0000   1.0000   1.0000   1.0000   1.0000   1.0000
     1.0000   1.0000   1.0000   1.0000   1.0000   1.0000   1.0000   1.0000
     1.0000   1.0000   1.0000   1.0000   1.0000   1.0000   1.0000   1.0000
     1.0000   1.0000   1.0000   1.0000   1.0000   1.0000   1.0000   1.0000
     1.0000   1.0000   1.0000   1.0000   1.0000   1.0000   1.0000   1.0000
     1.0000   1.0000   1.0000   1.0000   1.0000   1.0000   1.0000   1.0000
     1.0000   1.0000   1.0000   1.0000   1.0000   1.0000   1.0000   1.0000
     1.0000   1.0000   1.0000   1.0000   1.0000   1.0000   1.0000   1.0000
     1.0000   1.0000   1.0000   1.0000   1.0000   1.0000   1.0000   1.0000
     1.0000   1.0000   1.0000   1.0000   1.0000   1.0000   1.0000   1.0000
     1.0000   1.0000   1.0000   1.0000   1.0000   1.0000   1.0000   1.0000
     1.0000   1.0000   1.0000   1.0000   1.0000   1.0000   1.0000   1.0000
     1.0000   1.0000   1.0000   1.0000   1.0000   1.0000   1.0000   1.0000
     1.0000   1.0000   1.0000   1.0000   1.0000   1.0000   1.0000   1.0000
     1.0000   1.0000   1.0000   1.0000   1.0000   1.0000   1.0000   1.0000
     1.0000   1.0000   1.0000   1.0000   1.0000   1.0000   1.0000   1.0000
     1.0000   1.0000   1.0000   1.0000   1.0000   1.0000   1.0000   1.0000
     1.0000   1.0000   1.0000   1.0000   1.0000   1.0000   1.0000   1.0000
     1.0000   1.0000   1.0000   1.0000   1.0000   1.0000   1.0000   1.0000
     1.0000   1.0000   1.0000   1.0000   1.0000   1.0000   1.0000   1.0000
     1.0000   1.0000   1.0000   1.0000   1.0000   1.0000   1.0000   1.0000
     1.0000   1.0000   1.0000   1.0000   1.0000   1.0000   1.0000   1.0000
     1.0000   1.0000   1.0000   1.0000   1.0000   1.0000   1.0000   1.0000
     1.0000   1.0000   1.0000   1.0000   1.0000   1.0000   1.0000   1.0000
     1.0000   1.0000   1.0000   1.0000   1.0000   1.0000   1.0000   1.0000
     1.0000   1.0000   1.0000   1.0000   1.0000   1.0000   1.0000   1.0000
     1.0000   1.0000   1.0000   1.0000   1.0000   1.0000   1.0000   1.0000
     1.0000   1.0000   1.0000   1.0000   1.0000   1.0000   1.0000   1.0000
     1.0000   1.0000   1.0000   1.0000   1.0000   1.0000   1.0000   1.0000
     1.0000   1.0000   1.0000   1.0000   1.0000   1.0000   1.0000   1.0000
     1.0000   1.0000   1.0000   1.0000   1.0000   1.0000   1.0000   1.0000
     1.0000   1.0000   1.0000   1.0000   1.0000   1.0000   1.0000   1.0000
     1.0000   1.0000   1.0000   1.0000   1.0000   1.0000   1.0000   1.0000
     1.0000   1.0000   1.0000   1.0000   1.0000   1.0000   1.0000   1.0000
     1.0000   1.0000   1.0000   1.0000   1.0000   1.0000   1.0000   1.0000
     1.0000   1.0000   1.0000   1.0000   1.0000   1.0000   1.0000   1.0000
     1.0000   1.0000   1.0001   1.0001  -0.0318  -0.0320  -0.0000  -0.0000
    -0.0000  -0.0000  -0.0000  -0.0000  -0.0000  -0.0000  -0.0000  -0.0000
    -0.0000  -0.0000  -0.0000  -0.0000  -0.0000  -0.0000  -0.0000  -0.0000
    -0.0000  -0.0000  -0.0000  -0.0000  -0.0000  -0.0000  -0.0000  -0.0000
    -0.0000  -0.0000  -0.0000  -0.0000  -0.0000  -0.0000  -0.0000  -0.0000
    -0.0000  -0.0000  -0.0000  -0.0000  -0.0000  -0.0000  -0.0000  -0.0000
    -0.0000  -0.0000  -0.0000  -0.0000  -0.0000  -0.0000  -0.0000  -0.0000
    -0.0000  -0.0000  -0.0000  -0.0000  -0.0000  -0.0000  -0.0000  -0.0000
    -0.0000  -0.0000  -0.0000  -0.0000  -0.0000  -0.0000  -0.0000  -0.0000
    -0.0000  -0.0000  -0.0000  -0.0000  -0.0000  -0.0000  -0.0000  -0.0000
    -0.0000  -0.0000  -0.0000  -0.0000  -0.0000  -0.0000  -0.0000  -0.0000
    -0.0000  -0.0000  -0.0000  -0.0000  -0.0000  -0.0000  -0.0000  -0.0000
    -0.0000  -0.0000  -0.0000  -0.0000  -0.0000  -0.0000  -0.0000  -0.0000
    -0.0000  -0.0000  -0.0000  -0.0000  -0.0000  -0.0000  -0.0000  -0.0000

          k = 0.2500 0.4330 0.0000 (554595 PWs)   bands (ev):

   -68.2859 -68.2855 -68.2851 -68.2849 -68.2847 -68.2846 -68.2846 -68.2846
   -68.2846 -68.2845 -68.2845 -68.2845 -68.2844 -68.2844 -68.2841 -68.2840
   -68.2838 -68.2835 -67.7455 -67.7452 -67.7450 -67.7447 -67.7445 -67.7444
   -67.7444 -67.7444 -67.7443 -67.7443 -67.7442 -67.7442 -67.7442 -67.7441
   -67.7441 -67.7441 -67.7440 -67.7440 -67.7439 -67.7438 -67.7438 -67.7437
   -67.7437 -67.7437 -67.7437 -67.7436 -67.7436 -67.7436 -67.7436 -67.7436
   -67.7434 -67.7434 -67.7434 -67.7433 -67.7433 -67.7428 -35.6969 -35.6966
   -35.6961 -35.6960 -35.6957 -35.6957 -35.6957 -35.6957 -35.6956 -35.6955
   -35.6955 -35.6955 -35.6955 -35.6954 -35.6952 -35.6950 -35.6949 -35.6946
   -35.6920 -35.6920 -35.6917 -35.6917 -35.6913 -35.6912 -35.6911 -35.6911
   -35.6908 -35.6908 -35.6908 -35.6908 -35.6908 -35.6908 -35.6907 -35.6907
   -35.6907 -35.6907 -35.6907 -35.6906 -35.6906 -35.6906 -35.6906 -35.6906
   -35.6906 -35.6906 -35.6905 -35.6905 -35.6903 -35.6903 -35.6902 -35.6901
   -35.6900 -35.6899 -35.6897 -35.6896 -35.1781 -35.1781 -35.1779 -35.1778
   -35.1777 -35.1777 -35.1775 -35.1775 -35.1774 -35.1774 -35.1774 -35.1774
   -35.1774 -35.1773 -35.1773 -35.1773 -35.1772 -35.1772 -35.1771 -35.1771
   -35.1771 -35.1770 -35.1770 -35.1770 -35.1770 -35.1770 -35.1770 -35.1769
   -35.1769 -35.1769 -35.1769 -35.1769 -35.1768 -35.1768 -35.1768 -35.1767
   -35.1763 -35.1762 -35.1760 -35.1760 -35.1759 -35.1759 -35.1758 -35.1758
   -35.1757 -35.1756 -35.1755 -35.1755 -35.1750 -35.1748 -35.1747 -35.1747
   -35.1744 -35.1742 -35.1711 -35.1710 -35.1709 -35.1708 -35.1708 -35.1707
   -35.1707 -35.1707 -35.1706 -35.1705 -35.1704 -35.1704 -35.1704 -35.1703
   -35.1703 -35.1703 -35.1703 -35.1702 -35.1702 -35.1702 -35.1700 -35.1699
   -35.1698 -35.1698 -35.1694 -35.1692 -35.1691 -35.1690 -35.1690 -35.1688
   -35.1688 -35.1687 -35.1687 -35.1686 -35.1686 -35.1685 -35.1685 -35.1685
   -35.1684 -35.1683 -35.1683 -35.1682 -35.1682 -35.1681 -35.1681 -35.1681
   -35.1681 -35.1681 -35.1681 -35.1680 -35.1680 -35.1680 -35.1680 -35.1676
   -14.2177 -14.2176 -14.2167 -14.2161 -14.2160 -14.2157 -14.2153 -14.2151
   -14.2149 -14.2147 -14.2146 -14.2145 -14.2143 -14.2141 -14.2139 -14.2137
   -14.2136 -14.2128 -14.2125 -14.2118 -14.2117 -14.2113 -14.2112 -14.2111
   -14.2109 -14.2108 -14.2106 -14.2105 -14.2104 -14.2103 -14.2102 -14.2100
   -14.2099 -14.2096 -14.2094 -14.2092 -14.2091 -14.2089 -14.2088 -14.2086
   -14.2086 -14.2085 -14.2083 -14.2081 -14.2081 -14.2080 -14.2079 -14.2077
   -14.2076 -14.2075 -14.2074 -14.2073 -14.2072 -14.2071 -14.2071 -14.2069
   -14.2068 -14.2065 -14.2063 -14.2061 -14.2060 -14.2057 -14.2055 -14.2049
   -14.2047 -14.2046 -14.2044 -14.2042 -14.2037 -14.2031 -14.2027 -14.2025
   -14.1900 -14.1884 -14.1880 -14.1878 -14.1876 -14.1874 -14.1872 -14.1870
   -14.1869 -14.1866 -14.1864 -14.1863 -14.1861 -14.1860 -14.1858 -14.1857
   -14.1856 -14.1854 -14.1853 -14.1852 -14.1850 -14.1848 -14.1847 -14.1843
   -14.1841 -14.1838 -14.1836 -14.1835 -14.1833 -14.1830 -14.1829 -14.1827
   -14.1824 -14.1823 -14.1820 -14.1806 -14.1746 -14.1745 -14.1734 -14.1733
   -14.1732 -14.1731 -14.1728 -14.1726 -14.1724 -14.1723 -14.1723 -14.1721
   -14.1719 -14.1719 -14.1717 -14.1716 -14.1710 -14.1709 -14.1708 -14.1705
   -14.1705 -14.1702 -14.1696 -14.1695 -14.1692 -14.1691 -14.1684 -14.1682
   -14.1678 -14.1673 -14.1672 -14.1666 -14.1664 -14.1664 -14.1661 -14.1654
   -14.1653 -14.1651 -14.1648 -14.1647 -14.1646 -14.1643 -14.1637 -14.1632
   -14.1630 -14.1628 -14.1626 -14.1622 -14.1617 -14.1615 -14.1610 -14.1608
   -14.1607 -14.1600 -14.1596 -14.1591 -14.1589 -14.1587 -14.1586 -14.1585
   -14.1583 -14.1581 -14.1580 -14.1579 -14.1575 -14.1574 -14.1573 -14.1571
   -14.1569 -14.1565 -14.1560 -14.1557  -3.6094  -3.4625  -3.4620  -3.3471
    -3.2183  -3.2179  -3.0970  -3.0963  -3.0485  -2.9491  -2.9485  -2.9172
    -2.9167  -2.9153  -2.8934  -2.8932  -2.8140  -2.7844  -2.7704  -2.7702
    -2.7407  -2.7400  -2.7190  -2.6817  -2.6733  -2.6730  -2.6670  -2.6497
    -2.6229  -2.6223  -2.5703  -2.5581  -2.5579  -2.5382  -2.5372  -2.5365
     3.0540   3.0541   3.1587   3.1657   3.2829   3.2830   3.3588   3.4009
     3.4018   3.4506   3.4508   3.5120   3.5147   3.5621   3.5898   3.5902
     3.7038   3.7485   3.7488   3.8838   3.8840   4.1425   4.1432   4.1546
     4.1995   4.2000   4.2189   4.2191   4.2720   4.3762   4.3766   4.3918
     4.3921   4.4292   4.5311   4.6434   4.6439   4.6666   4.6994   4.8175
     4.8647   4.8675   4.9608   4.9610   5.0144   5.2471   5.2944   5.2947
     5.3509   5.3510   5.4146   5.4291   5.4295   5.4882   5.4886   5.5147
     5.5149   5.7380   5.7384   5.7873   5.8295   5.9123   5.9129   5.9784
     6.0208   6.0210   6.0482   6.1499   6.1501   6.2234   6.2649   6.2649
     6.2720   6.4006   6.4008   6.5280   6.5367   6.5371   6.5612   6.5616
     6.5663   6.5777   6.5782   6.6213   6.6217   6.6570   6.6575   6.6717
     6.6724   6.7694   6.7826   6.7831   6.8160   6.8163   6.8392   6.8511
     6.8844   6.9221   6.9223   6.9569   7.0185   7.0907   7.4051   7.4054
     7.5792   7.5801   7.6048   7.9044   8.6467   8.6469   8.6477   8.6479
     8.7039   8.7492   9.1214   9.1607   9.1615   9.2498   9.2500   9.3419
     9.4156   9.4158   9.4273   9.4274   9.4935   9.5404   9.6214   9.6218
     9.8073   9.8080   9.8344   9.8525   9.8784   9.9948  10.0285  10.0287
    10.1157  10.1160  10.1196  10.1199  10.1411  10.1413  10.2142  10.2623
    10.2629  10.2919  10.2923  10.3618  10.3698  10.4084  10.4089  10.5883
    10.5888  10.7089  10.8410  10.8411  10.8566  10.8726  10.9063  10.9676
    10.9679  10.9919  10.9953  10.9956  11.0719  11.0722  11.0920  11.1400
    11.1402  11.1868  11.1967  11.2174  11.2393  11.2698  11.2702  11.2926
    11.2931  11.3427  11.3428  11.3436  11.3440  11.3755  11.3762  11.5729
    11.6088  11.8017  11.9140  11.9140  11.9176  11.9177  11.9590  11.9785
    11.9812  11.9894  12.0018  12.0021  12.0719  12.0723  12.0960  12.0962
    12.1041  12.1042  12.1137  12.1587  12.3160  12.3812  12.3847  12.4206
    12.4209  12.4435  12.5110  12.5316  12.5319  12.6121  12.6124  12.6620

     occupation numbers 
     1.0000   1.0000   1.0000   1.0000   1.0000   1.0000   1.0000   1.0000
     1.0000   1.0000   1.0000   1.0000   1.0000   1.0000   1.0000   1.0000
     1.0000   1.0000   1.0000   1.0000   1.0000   1.0000   1.0000   1.0000
     1.0000   1.0000   1.0000   1.0000   1.0000   1.0000   1.0000   1.0000
     1.0000   1.0000   1.0000   1.0000   1.0000   1.0000   1.0000   1.0000
     1.0000   1.0000   1.0000   1.0000   1.0000   1.0000   1.0000   1.0000
     1.0000   1.0000   1.0000   1.0000   1.0000   1.0000   1.0000   1.0000
     1.0000   1.0000   1.0000   1.0000   1.0000   1.0000   1.0000   1.0000
     1.0000   1.0000   1.0000   1.0000   1.0000   1.0000   1.0000   1.0000
     1.0000   1.0000   1.0000   1.0000   1.0000   1.0000   1.0000   1.0000
     1.0000   1.0000   1.0000   1.0000   1.0000   1.0000   1.0000   1.0000
     1.0000   1.0000   1.0000   1.0000   1.0000   1.0000   1.0000   1.0000
     1.0000   1.0000   1.0000   1.0000   1.0000   1.0000   1.0000   1.0000
     1.0000   1.0000   1.0000   1.0000   1.0000   1.0000   1.0000   1.0000
     1.0000   1.0000   1.0000   1.0000   1.0000   1.0000   1.0000   1.0000
     1.0000   1.0000   1.0000   1.0000   1.0000   1.0000   1.0000   1.0000
     1.0000   1.0000   1.0000   1.0000   1.0000   1.0000   1.0000   1.0000
     1.0000   1.0000   1.0000   1.0000   1.0000   1.0000   1.0000   1.0000
     1.0000   1.0000   1.0000   1.0000   1.0000   1.0000   1.0000   1.0000
     1.0000   1.0000   1.0000   1.0000   1.0000   1.0000   1.0000   1.0000
     1.0000   1.0000   1.0000   1.0000   1.0000   1.0000   1.0000   1.0000
     1.0000   1.0000   1.0000   1.0000   1.0000   1.0000   1.0000   1.0000
     1.0000   1.0000   1.0000   1.0000   1.0000   1.0000   1.0000   1.0000
     1.0000   1.0000   1.0000   1.0000   1.0000   1.0000   1.0000   1.0000
     1.0000   1.0000   1.0000   1.0000   1.0000   1.0000   1.0000   1.0000
     1.0000   1.0000   1.0000   1.0000   1.0000   1.0000   1.0000   1.0000
     1.0000   1.0000   1.0000   1.0000   1.0000   1.0000   1.0000   1.0000
     1.0000   1.0000   1.0000   1.0000   1.0000   1.0000   1.0000   1.0000
     1.0000   1.0000   1.0000   1.0000   1.0000   1.0000   1.0000   1.0000
     1.0000   1.0000   1.0000   1.0000   1.0000   1.0000   1.0000   1.0000
     1.0000   1.0000   1.0000   1.0000   1.0000   1.0000   1.0000   1.0000
     1.0000   1.0000   1.0000   1.0000   1.0000   1.0000   1.0000   1.0000
     1.0000   1.0000   1.0000   1.0000   1.0000   1.0000   1.0000   1.0000
     1.0000   1.0000   1.0000   1.0000   1.0000   1.0000   1.0000   1.0000
     1.0000   1.0000   1.0000   1.0000   1.0000   1.0000   1.0000   1.0000
     1.0000   1.0000   1.0000   1.0000   1.0000   1.0000   1.0000   1.0000
     1.0000   1.0000   1.0000   1.0000   1.0000   1.0000   1.0000   1.0000
     1.0000   1.0000   1.0000   1.0000   1.0000   1.0000   1.0000   1.0000
     1.0000   1.0000   1.0000   1.0000   1.0000   1.0000   1.0000   1.0000
     1.0000   1.0000   1.0000   1.0000   1.0000   1.0000   1.0000   1.0000
     1.0000   1.0000   1.0000   1.0000   1.0000   1.0000   1.0000   1.0000
     1.0000   1.0000   1.0000   1.0000   1.0000   1.0000   1.0000   1.0000
     1.0000   1.0000   1.0000   1.0000   1.0000   1.0000   1.0000   1.0000
     1.0000   1.0000   1.0000   1.0000   1.0000   1.0000   1.0000   1.0000
     1.0000   1.0000   1.0000   1.0000   1.0000   1.0000   1.0000   1.0000
     1.0000   1.0000   1.0000   1.0000   1.0000   1.0000   1.0000   1.0000
     1.0000   1.0000   1.0000   1.0000   1.0000   1.0000   1.0000   1.0000
     1.0000   1.0000   1.0000   1.0000   1.0000   1.0000   1.0000   1.0000
     1.0000   1.0000   1.0000   1.0000   1.0000   1.0000   1.0000   1.0000
     1.0000   1.0000   1.0000   1.0000   1.0000   1.0000   1.0000   1.0000
     1.0000   1.0000   1.0000   1.0000   1.0000   1.0000   1.0000   1.0000
     1.0000   1.0000   1.0000   1.0000   1.0000   1.0000   1.0000   1.0000
     1.0000   1.0000   1.0000   1.0000   1.0000   1.0000   1.0000   1.0000
     1.0000   1.0000   1.0000   1.0000   1.0000   1.0000   1.0000   1.0000
     1.0000   1.0000   1.0000   1.0000   1.0000   1.0000   1.0000   1.0000
     1.0000   1.0000   1.0000   1.0000   1.0000   1.0000   1.0000   1.0000
     1.0000   1.0000   1.0000   1.0000   1.0000   1.0000   1.0000   1.0000
     1.0000   1.0000   1.0000   1.0000   1.0000   1.0000   1.0000   1.0000
     1.0000   1.0000   1.0000   1.0000   1.0000   1.0000   1.0000   1.0000
     1.0000   1.0000   1.0000   1.0000   1.0000   1.0000   1.0000   1.0000
     1.0000   1.0000   1.0000   1.0000   1.0000   1.0000   1.0000   1.0000
     1.0000   1.0000   1.0000   1.0000   1.0000   1.0000   1.0000   1.0000
     1.0000   1.0000   1.0000   1.0000   1.0000   1.0000   1.0000   1.0000
     1.0000   1.0000   1.0000   1.0000   1.0000   1.0000   1.0000   1.0000
     1.0000   1.0000   1.0000   1.0000   1.0000   1.0000   1.0000   1.0000
     1.0000   1.0000   1.0000   1.0000   1.0000   1.0000   1.0000   1.0000
     1.0000   1.0000   1.0000   1.0000   1.0000   1.0000   1.0000   1.0000
     1.0001   1.0001   1.0004   0.8918  -0.0000  -0.0000  -0.0000  -0.0000
    -0.0000  -0.0000  -0.0000  -0.0000  -0.0000  -0.0000  -0.0000  -0.0000
    -0.0000  -0.0000  -0.0000  -0.0000  -0.0000  -0.0000  -0.0000  -0.0000
    -0.0000  -0.0000  -0.0000  -0.0000  -0.0000  -0.0000  -0.0000  -0.0000
    -0.0000  -0.0000  -0.0000  -0.0000  -0.0000  -0.0000  -0.0000  -0.0000
    -0.0000  -0.0000  -0.0000  -0.0000  -0.0000  -0.0000  -0.0000  -0.0000
    -0.0000  -0.0000  -0.0000  -0.0000  -0.0000  -0.0000  -0.0000  -0.0000
    -0.0000  -0.0000  -0.0000  -0.0000  -0.0000  -0.0000  -0.0000  -0.0000
    -0.0000  -0.0000  -0.0000  -0.0000  -0.0000  -0.0000  -0.0000  -0.0000
    -0.0000  -0.0000  -0.0000  -0.0000  -0.0000  -0.0000  -0.0000  -0.0000
    -0.0000  -0.0000  -0.0000  -0.0000  -0.0000  -0.0000  -0.0000  -0.0000
    -0.0000  -0.0000  -0.0000  -0.0000  -0.0000  -0.0000  -0.0000  -0.0000
    -0.0000  -0.0000  -0.0000  -0.0000  -0.0000  -0.0000  -0.0000  -0.0000
    -0.0000  -0.0000  -0.0000  -0.0000  -0.0000  -0.0000  -0.0000  -0.0000

          k = 0.2500 0.4330 0.2373 (554556 PWs)   bands (ev):

   -68.2859 -68.2855 -68.2851 -68.2849 -68.2847 -68.2846 -68.2846 -68.2846
   -68.2846 -68.2845 -68.2845 -68.2845 -68.2844 -68.2844 -68.2841 -68.2840
   -68.2838 -68.2835 -67.7455 -67.7452 -67.7450 -67.7447 -67.7445 -67.7444
   -67.7444 -67.7444 -67.7443 -67.7443 -67.7442 -67.7442 -67.7442 -67.7441
   -67.7441 -67.7441 -67.7440 -67.7440 -67.7439 -67.7438 -67.7438 -67.7437
   -67.7437 -67.7437 -67.7437 -67.7436 -67.7436 -67.7436 -67.7436 -67.7436
   -67.7434 -67.7434 -67.7434 -67.7433 -67.7433 -67.7428 -35.6969 -35.6966
   -35.6961 -35.6960 -35.6957 -35.6957 -35.6957 -35.6957 -35.6956 -35.6955
   -35.6955 -35.6955 -35.6955 -35.6954 -35.6952 -35.6950 -35.6949 -35.6946
   -35.6920 -35.6920 -35.6917 -35.6917 -35.6913 -35.6912 -35.6911 -35.6911
   -35.6908 -35.6908 -35.6908 -35.6908 -35.6908 -35.6908 -35.6907 -35.6907
   -35.6907 -35.6907 -35.6907 -35.6906 -35.6906 -35.6906 -35.6906 -35.6906
   -35.6906 -35.6906 -35.6905 -35.6905 -35.6903 -35.6903 -35.6902 -35.6901
   -35.6900 -35.6899 -35.6897 -35.6896 -35.1781 -35.1781 -35.1779 -35.1778
   -35.1777 -35.1777 -35.1775 -35.1775 -35.1774 -35.1774 -35.1774 -35.1774
   -35.1774 -35.1773 -35.1773 -35.1773 -35.1772 -35.1772 -35.1771 -35.1771
   -35.1771 -35.1770 -35.1770 -35.1770 -35.1770 -35.1770 -35.1770 -35.1769
   -35.1769 -35.1769 -35.1769 -35.1769 -35.1768 -35.1768 -35.1768 -35.1767
   -35.1763 -35.1762 -35.1760 -35.1760 -35.1759 -35.1759 -35.1758 -35.1758
   -35.1757 -35.1756 -35.1755 -35.1755 -35.1750 -35.1748 -35.1747 -35.1747
   -35.1744 -35.1742 -35.1711 -35.1710 -35.1709 -35.1708 -35.1708 -35.1707
   -35.1707 -35.1707 -35.1706 -35.1705 -35.1704 -35.1704 -35.1704 -35.1703
   -35.1703 -35.1703 -35.1703 -35.1702 -35.1702 -35.1702 -35.1700 -35.1699
   -35.1698 -35.1698 -35.1694 -35.1692 -35.1691 -35.1690 -35.1690 -35.1688
   -35.1688 -35.1687 -35.1687 -35.1686 -35.1686 -35.1685 -35.1685 -35.1685
   -35.1684 -35.1683 -35.1683 -35.1682 -35.1682 -35.1681 -35.1681 -35.1681
   -35.1681 -35.1681 -35.1681 -35.1680 -35.1680 -35.1680 -35.1680 -35.1676
   -14.2177 -14.2175 -14.2166 -14.2162 -14.2160 -14.2157 -14.2153 -14.2151
   -14.2149 -14.2147 -14.2146 -14.2146 -14.2143 -14.2141 -14.2139 -14.2138
   -14.2135 -14.2131 -14.2123 -14.2117 -14.2116 -14.2112 -14.2112 -14.2111
   -14.2108 -14.2106 -14.2105 -14.2104 -14.2103 -14.2103 -14.2101 -14.2100
   -14.2098 -14.2095 -14.2094 -14.2092 -14.2090 -14.2090 -14.2089 -14.2088
   -14.2087 -14.2085 -14.2083 -14.2083 -14.2082 -14.2079 -14.2079 -14.2078
   -14.2077 -14.2076 -14.2076 -14.2075 -14.2073 -14.2073 -14.2071 -14.2070
   -14.2068 -14.2066 -14.2063 -14.2060 -14.2059 -14.2056 -14.2052 -14.2049
   -14.2047 -14.2044 -14.2043 -14.2040 -14.2038 -14.2033 -14.2028 -14.2027
   -14.1900 -14.1883 -14.1880 -14.1878 -14.1876 -14.1873 -14.1872 -14.1871
   -14.1869 -14.1866 -14.1864 -14.1863 -14.1862 -14.1860 -14.1859 -14.1857
   -14.1857 -14.1855 -14.1853 -14.1853 -14.1850 -14.1848 -14.1848 -14.1843
   -14.1840 -14.1838 -14.1835 -14.1835 -14.1833 -14.1829 -14.1828 -14.1827
   -14.1823 -14.1822 -14.1820 -14.1806 -14.1746 -14.1745 -14.1734 -14.1733
   -14.1732 -14.1731 -14.1729 -14.1726 -14.1724 -14.1723 -14.1722 -14.1720
   -14.1719 -14.1718 -14.1716 -14.1715 -14.1711 -14.1710 -14.1709 -14.1706
   -14.1705 -14.1703 -14.1697 -14.1696 -14.1691 -14.1690 -14.1685 -14.1682
   -14.1678 -14.1673 -14.1671 -14.1667 -14.1665 -14.1661 -14.1660 -14.1656
   -14.1655 -14.1653 -14.1648 -14.1647 -14.1644 -14.1642 -14.1637 -14.1632
   -14.1630 -14.1628 -14.1626 -14.1622 -14.1618 -14.1616 -14.1610 -14.1608
   -14.1607 -14.1601 -14.1595 -14.1590 -14.1589 -14.1586 -14.1585 -14.1584
   -14.1582 -14.1581 -14.1580 -14.1578 -14.1576 -14.1575 -14.1573 -14.1571
   -14.1570 -14.1566 -14.1561 -14.1558  -3.5845  -3.4393  -3.4387  -3.4128
    -3.2796  -3.2787  -3.0797  -3.0787  -2.9681  -2.9623  -2.9605  -2.9025
    -2.8821  -2.8804  -2.8767  -2.8755  -2.8164  -2.8045  -2.8027  -2.7990
    -2.7424  -2.7225  -2.6935  -2.6912  -2.6587  -2.6578  -2.6458  -2.6416
    -2.6353  -2.6287  -2.5775  -2.5700  -2.5678  -2.5585  -2.5570  -2.5508
     3.0497   3.0837   3.1799   3.2114   3.2403   3.2623   3.3181   3.4617
     3.4815   3.5282   3.5291   3.5306   3.5621   3.6036   3.6216   3.6479
     3.6908   3.7025   3.7571   3.8554   3.8857   3.9195   3.9296   3.9768
     3.9782   3.9965   4.0592   4.0713   4.1210   4.1540   4.5998   4.6417
     4.6618   4.6692   4.6757   4.6987   4.7446   4.7514   4.8223   4.8341
     4.9510   4.9595   5.0223   5.1220   5.2361   5.2430   5.2492   5.3211
     5.3434   5.3545   5.3667   5.3793   5.3900   5.4140   5.4732   5.5106
     5.5546   5.7347   5.7370   5.7859   5.7876   5.8655   5.9109   5.9341
     5.9825   6.0235   6.0780   6.0958   6.1138   6.1432   6.1669   6.1876
     6.1918   6.1926   6.2498   6.2534   6.3217   6.3448   6.3621   6.3734
     6.4013   6.4414   6.4508   6.4549   6.7229   6.7725   6.7988   6.8134
     6.8190   6.8486   6.8588   6.8688   6.9574   6.9581   6.9985   7.0291
     7.0315   7.0988   7.1192   7.1213   7.1416   7.2376   7.2997   7.3305
     7.5505   7.5915   7.5968   7.7856   8.3091   8.5837   8.6149   8.6708
     8.8867   8.8943   8.9657   9.1036   9.2169   9.2207   9.3439   9.3581
     9.3586   9.4249   9.5225   9.5736   9.5742   9.5982   9.6569   9.6625
     9.7838   9.7879   9.8813   9.9335   9.9343   9.9543   9.9679  10.0068
    10.0479  10.0618  10.0714  10.2324  10.2413  10.2702  10.2722  10.2808
    10.2860  10.3862  10.4403  10.4481  10.4484  10.4803  10.4849  10.5269
    10.5788  10.6267  10.6605  10.6668  10.7293  10.7435  10.7521  10.7538
    10.7958  10.8334  10.8633  10.9350  11.0028  11.0047  11.0081  11.0916
    11.1777  11.2174  11.2556  11.2713  11.3009  11.3331  11.3479  11.3590
    11.3677  11.3806  11.4176  11.5080  11.5470  11.5625  11.5709  11.5725
    11.6069  11.6083  11.6200  11.6304  11.6449  11.7677  11.8263  11.8290
    11.8402  11.8631  11.8854  11.9039  11.9709  12.1094  12.1173  12.1409
    12.1526  12.1560  12.1578  12.2474  12.2674  12.3484  12.3525  12.3795
    12.3946  12.4221  12.4932  12.5223  12.5657  12.5963  12.5972  12.7026

     occupation numbers 
     1.0000   1.0000   1.0000   1.0000   1.0000   1.0000   1.0000   1.0000
     1.0000   1.0000   1.0000   1.0000   1.0000   1.0000   1.0000   1.0000
     1.0000   1.0000   1.0000   1.0000   1.0000   1.0000   1.0000   1.0000
     1.0000   1.0000   1.0000   1.0000   1.0000   1.0000   1.0000   1.0000
     1.0000   1.0000   1.0000   1.0000   1.0000   1.0000   1.0000   1.0000
     1.0000   1.0000   1.0000   1.0000   1.0000   1.0000   1.0000   1.0000
     1.0000   1.0000   1.0000   1.0000   1.0000   1.0000   1.0000   1.0000
     1.0000   1.0000   1.0000   1.0000   1.0000   1.0000   1.0000   1.0000
     1.0000   1.0000   1.0000   1.0000   1.0000   1.0000   1.0000   1.0000
     1.0000   1.0000   1.0000   1.0000   1.0000   1.0000   1.0000   1.0000
     1.0000   1.0000   1.0000   1.0000   1.0000   1.0000   1.0000   1.0000
     1.0000   1.0000   1.0000   1.0000   1.0000   1.0000   1.0000   1.0000
     1.0000   1.0000   1.0000   1.0000   1.0000   1.0000   1.0000   1.0000
     1.0000   1.0000   1.0000   1.0000   1.0000   1.0000   1.0000   1.0000
     1.0000   1.0000   1.0000   1.0000   1.0000   1.0000   1.0000   1.0000
     1.0000   1.0000   1.0000   1.0000   1.0000   1.0000   1.0000   1.0000
     1.0000   1.0000   1.0000   1.0000   1.0000   1.0000   1.0000   1.0000
     1.0000   1.0000   1.0000   1.0000   1.0000   1.0000   1.0000   1.0000
     1.0000   1.0000   1.0000   1.0000   1.0000   1.0000   1.0000   1.0000
     1.0000   1.0000   1.0000   1.0000   1.0000   1.0000   1.0000   1.0000
     1.0000   1.0000   1.0000   1.0000   1.0000   1.0000   1.0000   1.0000
     1.0000   1.0000   1.0000   1.0000   1.0000   1.0000   1.0000   1.0000
     1.0000   1.0000   1.0000   1.0000   1.0000   1.0000   1.0000   1.0000
     1.0000   1.0000   1.0000   1.0000   1.0000   1.0000   1.0000   1.0000
     1.0000   1.0000   1.0000   1.0000   1.0000   1.0000   1.0000   1.0000
     1.0000   1.0000   1.0000   1.0000   1.0000   1.0000   1.0000   1.0000
     1.0000   1.0000   1.0000   1.0000   1.0000   1.0000   1.0000   1.0000
     1.0000   1.0000   1.0000   1.0000   1.0000   1.0000   1.0000   1.0000
     1.0000   1.0000   1.0000   1.0000   1.0000   1.0000   1.0000   1.0000
     1.0000   1.0000   1.0000   1.0000   1.0000   1.0000   1.0000   1.0000
     1.0000   1.0000   1.0000   1.0000   1.0000   1.0000   1.0000   1.0000
     1.0000   1.0000   1.0000   1.0000   1.0000   1.0000   1.0000   1.0000
     1.0000   1.0000   1.0000   1.0000   1.0000   1.0000   1.0000   1.0000
     1.0000   1.0000   1.0000   1.0000   1.0000   1.0000   1.0000   1.0000
     1.0000   1.0000   1.0000   1.0000   1.0000   1.0000   1.0000   1.0000
     1.0000   1.0000   1.0000   1.0000   1.0000   1.0000   1.0000   1.0000
     1.0000   1.0000   1.0000   1.0000   1.0000   1.0000   1.0000   1.0000
     1.0000   1.0000   1.0000   1.0000   1.0000   1.0000   1.0000   1.0000
     1.0000   1.0000   1.0000   1.0000   1.0000   1.0000   1.0000   1.0000
     1.0000   1.0000   1.0000   1.0000   1.0000   1.0000   1.0000   1.0000
     1.0000   1.0000   1.0000   1.0000   1.0000   1.0000   1.0000   1.0000
     1.0000   1.0000   1.0000   1.0000   1.0000   1.0000   1.0000   1.0000
     1.0000   1.0000   1.0000   1.0000   1.0000   1.0000   1.0000   1.0000
     1.0000   1.0000   1.0000   1.0000   1.0000   1.0000   1.0000   1.0000
     1.0000   1.0000   1.0000   1.0000   1.0000   1.0000   1.0000   1.0000
     1.0000   1.0000   1.0000   1.0000   1.0000   1.0000   1.0000   1.0000
     1.0000   1.0000   1.0000   1.0000   1.0000   1.0000   1.0000   1.0000
     1.0000   1.0000   1.0000   1.0000   1.0000   1.0000   1.0000   1.0000
     1.0000   1.0000   1.0000   1.0000   1.0000   1.0000   1.0000   1.0000
     1.0000   1.0000   1.0000   1.0000   1.0000   1.0000   1.0000   1.0000
     1.0000   1.0000   1.0000   1.0000   1.0000   1.0000   1.0000   1.0000
     1.0000   1.0000   1.0000   1.0000   1.0000   1.0000   1.0000   1.0000
     1.0000   1.0000   1.0000   1.0000   1.0000   1.0000   1.0000   1.0000
     1.0000   1.0000   1.0000   1.0000   1.0000   1.0000   1.0000   1.0000
     1.0000   1.0000   1.0000   1.0000   1.0000   1.0000   1.0000   1.0000
     1.0000   1.0000   1.0000   1.0000   1.0000   1.0000   1.0000   1.0000
     1.0000   1.0000   1.0000   1.0000   1.0000   1.0000   1.0000   1.0000
     1.0000   1.0000   1.0000   1.0000   1.0000   1.0000   1.0000   1.0000
     1.0000   1.0000   1.0000   1.0000   1.0000   1.0000   1.0000   1.0000
     1.0000   1.0000   1.0000   1.0000   1.0000   1.0000   1.0000   1.0000
     1.0000   1.0000   1.0000   1.0000   1.0000   1.0000   1.0000   1.0000
     1.0000   1.0000   1.0000   1.0000   1.0000   1.0000   1.0000   1.0000
     1.0000   1.0000   1.0000   1.0000   1.0000   1.0000   1.0000   1.0000
     1.0000   1.0000   1.0000   1.0000   1.0000   1.0000   1.0000   1.0000
     1.0000   1.0000   1.0000   1.0000   1.0000   1.0000   1.0000   1.0000
     1.0000   1.0000   1.0000   1.0000   1.0000   1.0000   1.0000   1.0000
     1.0000   1.0000   1.0000   1.0000   1.0000   1.0000   1.0000   1.0000
     1.0000   1.0002   1.0003   1.0312  -0.0016  -0.0000  -0.0000  -0.0000
    -0.0000  -0.0000  -0.0000  -0.0000  -0.0000  -0.0000  -0.0000  -0.0000
    -0.0000  -0.0000  -0.0000  -0.0000  -0.0000  -0.0000  -0.0000  -0.0000
    -0.0000  -0.0000  -0.0000  -0.0000  -0.0000  -0.0000  -0.0000  -0.0000
    -0.0000  -0.0000  -0.0000  -0.0000  -0.0000  -0.0000  -0.0000  -0.0000
    -0.0000  -0.0000  -0.0000  -0.0000  -0.0000  -0.0000  -0.0000  -0.0000
    -0.0000  -0.0000  -0.0000  -0.0000  -0.0000  -0.0000  -0.0000  -0.0000
    -0.0000  -0.0000  -0.0000  -0.0000  -0.0000  -0.0000  -0.0000  -0.0000
    -0.0000  -0.0000  -0.0000  -0.0000  -0.0000  -0.0000  -0.0000  -0.0000
    -0.0000  -0.0000  -0.0000  -0.0000  -0.0000  -0.0000  -0.0000  -0.0000
    -0.0000  -0.0000  -0.0000  -0.0000  -0.0000  -0.0000  -0.0000  -0.0000
    -0.0000  -0.0000  -0.0000  -0.0000  -0.0000  -0.0000  -0.0000  -0.0000
    -0.0000  -0.0000  -0.0000  -0.0000  -0.0000  -0.0000  -0.0000  -0.0000
    -0.0000  -0.0000  -0.0000  -0.0000  -0.0000  -0.0000  -0.0000  -0.0000

          k = 0.2500 0.4330-0.4746 (554570 PWs)   bands (ev):

   -68.2859 -68.2855 -68.2851 -68.2849 -68.2847 -68.2846 -68.2846 -68.2846
   -68.2846 -68.2845 -68.2845 -68.2845 -68.2844 -68.2844 -68.2841 -68.2840
   -68.2838 -68.2835 -67.7455 -67.7452 -67.7450 -67.7447 -67.7445 -67.7444
   -67.7444 -67.7444 -67.7443 -67.7443 -67.7442 -67.7442 -67.7442 -67.7441
   -67.7441 -67.7441 -67.7440 -67.7440 -67.7439 -67.7438 -67.7438 -67.7437
   -67.7437 -67.7437 -67.7437 -67.7436 -67.7436 -67.7436 -67.7436 -67.7436
   -67.7434 -67.7434 -67.7434 -67.7433 -67.7433 -67.7428 -35.6969 -35.6966
   -35.6961 -35.6960 -35.6957 -35.6957 -35.6957 -35.6957 -35.6956 -35.6955
   -35.6955 -35.6955 -35.6955 -35.6954 -35.6952 -35.6950 -35.6949 -35.6946
   -35.6920 -35.6920 -35.6917 -35.6917 -35.6913 -35.6912 -35.6911 -35.6911
   -35.6908 -35.6908 -35.6908 -35.6908 -35.6908 -35.6908 -35.6907 -35.6907
   -35.6907 -35.6907 -35.6907 -35.6906 -35.6906 -35.6906 -35.6906 -35.6906
   -35.6906 -35.6906 -35.6905 -35.6905 -35.6903 -35.6903 -35.6902 -35.6901
   -35.6900 -35.6899 -35.6897 -35.6896 -35.1781 -35.1781 -35.1779 -35.1778
   -35.1777 -35.1777 -35.1775 -35.1775 -35.1774 -35.1774 -35.1774 -35.1774
   -35.1774 -35.1773 -35.1773 -35.1773 -35.1772 -35.1772 -35.1771 -35.1771
   -35.1771 -35.1770 -35.1770 -35.1770 -35.1770 -35.1770 -35.1770 -35.1769
   -35.1769 -35.1769 -35.1769 -35.1769 -35.1768 -35.1768 -35.1768 -35.1767
   -35.1763 -35.1762 -35.1760 -35.1760 -35.1759 -35.1759 -35.1758 -35.1758
   -35.1757 -35.1756 -35.1755 -35.1755 -35.1750 -35.1748 -35.1747 -35.1747
   -35.1744 -35.1742 -35.1711 -35.1710 -35.1709 -35.1708 -35.1708 -35.1707
   -35.1707 -35.1707 -35.1706 -35.1705 -35.1704 -35.1704 -35.1704 -35.1703
   -35.1703 -35.1703 -35.1703 -35.1702 -35.1702 -35.1702 -35.1700 -35.1699
   -35.1698 -35.1698 -35.1694 -35.1692 -35.1691 -35.1690 -35.1690 -35.1688
   -35.1688 -35.1687 -35.1687 -35.1686 -35.1686 -35.1685 -35.1685 -35.1685
   -35.1684 -35.1683 -35.1683 -35.1682 -35.1682 -35.1681 -35.1681 -35.1681
   -35.1681 -35.1681 -35.1681 -35.1680 -35.1680 -35.1680 -35.1680 -35.1676
   -14.2177 -14.2175 -14.2164 -14.2163 -14.2161 -14.2156 -14.2152 -14.2152
   -14.2151 -14.2147 -14.2146 -14.2145 -14.2144 -14.2141 -14.2138 -14.2137
   -14.2137 -14.2132 -14.2122 -14.2118 -14.2114 -14.2113 -14.2111 -14.2110
   -14.2108 -14.2105 -14.2104 -14.2103 -14.2102 -14.2101 -14.2101 -14.2100
   -14.2096 -14.2095 -14.2093 -14.2092 -14.2091 -14.2090 -14.2089 -14.2088
   -14.2087 -14.2086 -14.2085 -14.2083 -14.2083 -14.2081 -14.2080 -14.2080
   -14.2078 -14.2078 -14.2076 -14.2075 -14.2074 -14.2073 -14.2072 -14.2071
   -14.2069 -14.2065 -14.2061 -14.2058 -14.2057 -14.2055 -14.2050 -14.2048
   -14.2046 -14.2042 -14.2041 -14.2039 -14.2037 -14.2035 -14.2030 -14.2028
   -14.1900 -14.1882 -14.1880 -14.1878 -14.1875 -14.1874 -14.1872 -14.1870
   -14.1868 -14.1866 -14.1865 -14.1864 -14.1861 -14.1861 -14.1859 -14.1859
   -14.1857 -14.1856 -14.1853 -14.1853 -14.1850 -14.1849 -14.1848 -14.1843
   -14.1840 -14.1838 -14.1835 -14.1835 -14.1832 -14.1829 -14.1828 -14.1826
   -14.1823 -14.1822 -14.1821 -14.1806 -14.1746 -14.1745 -14.1734 -14.1733
   -14.1732 -14.1731 -14.1729 -14.1727 -14.1724 -14.1722 -14.1721 -14.1718
   -14.1718 -14.1718 -14.1715 -14.1714 -14.1714 -14.1713 -14.1709 -14.1707
   -14.1706 -14.1702 -14.1699 -14.1696 -14.1691 -14.1690 -14.1685 -14.1682
   -14.1678 -14.1673 -14.1671 -14.1665 -14.1664 -14.1663 -14.1659 -14.1657
   -14.1655 -14.1654 -14.1648 -14.1646 -14.1644 -14.1642 -14.1637 -14.1633
   -14.1630 -14.1628 -14.1626 -14.1622 -14.1618 -14.1616 -14.1610 -14.1608
   -14.1607 -14.1601 -14.1595 -14.1590 -14.1587 -14.1587 -14.1584 -14.1582
   -14.1582 -14.1581 -14.1579 -14.1578 -14.1576 -14.1575 -14.1574 -14.1571
   -14.1569 -14.1568 -14.1563 -14.1559  -3.5140  -3.5131  -3.3737  -3.3732
    -3.3726  -3.3719  -3.0312  -3.0307  -3.0293  -3.0290  -2.8667  -2.8658
    -2.8494  -2.8488  -2.8462  -2.8455  -2.8314  -2.8306  -2.7786  -2.7778
    -2.7549  -2.7542  -2.7532  -2.7528  -2.6167  -2.6164  -2.6143  -2.6139
    -2.6022  -2.6015  -2.5988  -2.5981  -2.5979  -2.5973  -2.5866  -2.5858
     3.1053   3.1056   3.1466   3.1469   3.2361   3.2372   3.5562   3.5568
     3.5632   3.5641   3.6185   3.6191   3.6471   3.6472   3.6865   3.6875
     3.6978   3.6982   3.7296   3.7300   3.7631   3.7633   3.8002   3.8005
     3.8359   3.8370   3.8916   3.8921   4.0422   4.0425   4.6532   4.6537
     4.7114   4.7124   4.8641   4.8642   4.9791   4.9793   5.0584   5.0589
     5.0624   5.0634   5.1205   5.1210   5.1353   5.1356   5.3431   5.3432
     5.3966   5.3972   5.3993   5.3996   5.4398   5.4400   5.4540   5.4541
     5.6034   5.6037   5.7190   5.7201   5.7230   5.7233   5.7316   5.7319
     5.7708   5.7711   5.8398   5.8405   6.0232   6.0237   6.1917   6.1920
     6.2122   6.2124   6.3000   6.3002   6.3315   6.3316   6.4175   6.4178
     6.4375   6.4384   6.5674   6.5677   6.7038   6.7043   6.7085   6.7094
     6.7306   6.7307   6.8915   6.8920   7.0894   7.0897   7.1196   7.1198
     7.1666   7.1673   7.1736   7.1739   7.3883   7.3893   7.4247   7.4255
     7.4326   7.4328   7.4903   7.4906   8.4527   8.4530   8.6178   8.6182
     9.0657   9.0662   9.1430   9.1436   9.1641   9.1647   9.3610   9.3614
     9.4333   9.4336   9.5049   9.5053   9.6474   9.6475   9.6515   9.6519
     9.6922   9.6928   9.8330   9.8335   9.9336   9.9343   9.9575   9.9577
    10.1295  10.1296  10.1503  10.1506  10.2229  10.2234  10.2511  10.2513
    10.3252  10.3253  10.4068  10.4076  10.4081  10.4083  10.5517  10.5520
    10.6080  10.6085  10.6801  10.6807  10.7181  10.7186  10.8779  10.8782
    10.9582  10.9589  11.0146  11.0150  11.0864  11.0867  11.1247  11.1248
    11.1346  11.1349  11.1707  11.1714  11.2515  11.2521  11.2716  11.2718
    11.3495  11.3498  11.4772  11.4775  11.5590  11.5592  11.6024  11.6026
    11.6129  11.6133  11.6443  11.6444  11.6570  11.6574  11.6776  11.6782
    11.7479  11.7484  11.7554  11.7562  11.8663  11.8666  11.9146  11.9150
    11.9308  11.9310  12.2535  12.2538  12.2657  12.2659  12.4160  12.4162
    12.4867  12.4869  12.5688  12.5691  12.5876  12.5882  12.6555  12.6560

     occupation numbers 
     1.0000   1.0000   1.0000   1.0000   1.0000   1.0000   1.0000   1.0000
     1.0000   1.0000   1.0000   1.0000   1.0000   1.0000   1.0000   1.0000
     1.0000   1.0000   1.0000   1.0000   1.0000   1.0000   1.0000   1.0000
     1.0000   1.0000   1.0000   1.0000   1.0000   1.0000   1.0000   1.0000
     1.0000   1.0000   1.0000   1.0000   1.0000   1.0000   1.0000   1.0000
     1.0000   1.0000   1.0000   1.0000   1.0000   1.0000   1.0000   1.0000
     1.0000   1.0000   1.0000   1.0000   1.0000   1.0000   1.0000   1.0000
     1.0000   1.0000   1.0000   1.0000   1.0000   1.0000   1.0000   1.0000
     1.0000   1.0000   1.0000   1.0000   1.0000   1.0000   1.0000   1.0000
     1.0000   1.0000   1.0000   1.0000   1.0000   1.0000   1.0000   1.0000
     1.0000   1.0000   1.0000   1.0000   1.0000   1.0000   1.0000   1.0000
     1.0000   1.0000   1.0000   1.0000   1.0000   1.0000   1.0000   1.0000
     1.0000   1.0000   1.0000   1.0000   1.0000   1.0000   1.0000   1.0000
     1.0000   1.0000   1.0000   1.0000   1.0000   1.0000   1.0000   1.0000
     1.0000   1.0000   1.0000   1.0000   1.0000   1.0000   1.0000   1.0000
     1.0000   1.0000   1.0000   1.0000   1.0000   1.0000   1.0000   1.0000
     1.0000   1.0000   1.0000   1.0000   1.0000   1.0000   1.0000   1.0000
     1.0000   1.0000   1.0000   1.0000   1.0000   1.0000   1.0000   1.0000
     1.0000   1.0000   1.0000   1.0000   1.0000   1.0000   1.0000   1.0000
     1.0000   1.0000   1.0000   1.0000   1.0000   1.0000   1.0000   1.0000
     1.0000   1.0000   1.0000   1.0000   1.0000   1.0000   1.0000   1.0000
     1.0000   1.0000   1.0000   1.0000   1.0000   1.0000   1.0000   1.0000
     1.0000   1.0000   1.0000   1.0000   1.0000   1.0000   1.0000   1.0000
     1.0000   1.0000   1.0000   1.0000   1.0000   1.0000   1.0000   1.0000
     1.0000   1.0000   1.0000   1.0000   1.0000   1.0000   1.0000   1.0000
     1.0000   1.0000   1.0000   1.0000   1.0000   1.0000   1.0000   1.0000
     1.0000   1.0000   1.0000   1.0000   1.0000   1.0000   1.0000   1.0000
     1.0000   1.0000   1.0000   1.0000   1.0000   1.0000   1.0000   1.0000
     1.0000   1.0000   1.0000   1.0000   1.0000   1.0000   1.0000   1.0000
     1.0000   1.0000   1.0000   1.0000   1.0000   1.0000   1.0000   1.0000
     1.0000   1.0000   1.0000   1.0000   1.0000   1.0000   1.0000   1.0000
     1.0000   1.0000   1.0000   1.0000   1.0000   1.0000   1.0000   1.0000
     1.0000   1.0000   1.0000   1.0000   1.0000   1.0000   1.0000   1.0000
     1.0000   1.0000   1.0000   1.0000   1.0000   1.0000   1.0000   1.0000
     1.0000   1.0000   1.0000   1.0000   1.0000   1.0000   1.0000   1.0000
     1.0000   1.0000   1.0000   1.0000   1.0000   1.0000   1.0000   1.0000
     1.0000   1.0000   1.0000   1.0000   1.0000   1.0000   1.0000   1.0000
     1.0000   1.0000   1.0000   1.0000   1.0000   1.0000   1.0000   1.0000
     1.0000   1.0000   1.0000   1.0000   1.0000   1.0000   1.0000   1.0000
     1.0000   1.0000   1.0000   1.0000   1.0000   1.0000   1.0000   1.0000
     1.0000   1.0000   1.0000   1.0000   1.0000   1.0000   1.0000   1.0000
     1.0000   1.0000   1.0000   1.0000   1.0000   1.0000   1.0000   1.0000
     1.0000   1.0000   1.0000   1.0000   1.0000   1.0000   1.0000   1.0000
     1.0000   1.0000   1.0000   1.0000   1.0000   1.0000   1.0000   1.0000
     1.0000   1.0000   1.0000   1.0000   1.0000   1.0000   1.0000   1.0000
     1.0000   1.0000   1.0000   1.0000   1.0000   1.0000   1.0000   1.0000
     1.0000   1.0000   1.0000   1.0000   1.0000   1.0000   1.0000   1.0000
     1.0000   1.0000   1.0000   1.0000   1.0000   1.0000   1.0000   1.0000
     1.0000   1.0000   1.0000   1.0000   1.0000   1.0000   1.0000   1.0000
     1.0000   1.0000   1.0000   1.0000   1.0000   1.0000   1.0000   1.0000
     1.0000   1.0000   1.0000   1.0000   1.0000   1.0000   1.0000   1.0000
     1.0000   1.0000   1.0000   1.0000   1.0000   1.0000   1.0000   1.0000
     1.0000   1.0000   1.0000   1.0000   1.0000   1.0000   1.0000   1.0000
     1.0000   1.0000   1.0000   1.0000   1.0000   1.0000   1.0000   1.0000
     1.0000   1.0000   1.0000   1.0000   1.0000   1.0000   1.0000   1.0000
     1.0000   1.0000   1.0000   1.0000   1.0000   1.0000   1.0000   1.0000
     1.0000   1.0000   1.0000   1.0000   1.0000   1.0000   1.0000   1.0000
     1.0000   1.0000   1.0000   1.0000   1.0000   1.0000   1.0000   1.0000
     1.0000   1.0000   1.0000   1.0000   1.0000   1.0000   1.0000   1.0000
     1.0000   1.0000   1.0000   1.0000   1.0000   1.0000   1.0000   1.0000
     1.0000   1.0000   1.0000   1.0000   1.0000   1.0000   1.0000   1.0000
     1.0000   1.0000   1.0000   1.0000   1.0000   1.0000   1.0000   1.0000
     1.0000   1.0000   1.0000   1.0000   1.0000   1.0000   1.0000   1.0000
     1.0000   1.0000   1.0000   1.0000   1.0000   1.0000   1.0000   1.0000
     1.0000   1.0000   1.0000   1.0000   1.0000   1.0000   1.0000   1.0000
     1.0000   1.0000   1.0000   1.0000   1.0000   1.0000   1.0000   1.0000
     1.0000   1.0000   1.0000   1.0000   1.0000   1.0000   1.0000   1.0000
     1.0000   1.0000   1.0000   1.0000  -0.0000  -0.0000  -0.0000  -0.0000
    -0.0000  -0.0000  -0.0000  -0.0000  -0.0000  -0.0000  -0.0000  -0.0000
    -0.0000  -0.0000  -0.0000  -0.0000  -0.0000  -0.0000  -0.0000  -0.0000
    -0.0000  -0.0000  -0.0000  -0.0000  -0.0000  -0.0000  -0.0000  -0.0000
    -0.0000  -0.0000  -0.0000  -0.0000  -0.0000  -0.0000  -0.0000  -0.0000
    -0.0000  -0.0000  -0.0000  -0.0000  -0.0000  -0.0000  -0.0000  -0.0000
    -0.0000  -0.0000  -0.0000  -0.0000  -0.0000  -0.0000  -0.0000  -0.0000
    -0.0000  -0.0000  -0.0000  -0.0000  -0.0000  -0.0000  -0.0000  -0.0000
    -0.0000  -0.0000  -0.0000  -0.0000  -0.0000  -0.0000  -0.0000  -0.0000
    -0.0000  -0.0000  -0.0000  -0.0000  -0.0000  -0.0000  -0.0000  -0.0000
    -0.0000  -0.0000  -0.0000  -0.0000  -0.0000  -0.0000  -0.0000  -0.0000
    -0.0000  -0.0000  -0.0000  -0.0000  -0.0000  -0.0000  -0.0000  -0.0000
    -0.0000  -0.0000  -0.0000  -0.0000  -0.0000  -0.0000  -0.0000  -0.0000
    -0.0000  -0.0000  -0.0000  -0.0000  -0.0000  -0.0000  -0.0000  -0.0000

          k =-0.2500 0.1443 0.0000 (554671 PWs)   bands (ev):

   -68.2859 -68.2855 -68.2851 -68.2849 -68.2847 -68.2846 -68.2846 -68.2846
   -68.2846 -68.2845 -68.2845 -68.2845 -68.2844 -68.2844 -68.2841 -68.2840
   -68.2838 -68.2835 -67.7455 -67.7452 -67.7450 -67.7447 -67.7445 -67.7445
   -67.7444 -67.7443 -67.7443 -67.7443 -67.7443 -67.7442 -67.7442 -67.7442
   -67.7441 -67.7440 -67.7440 -67.7440 -67.7439 -67.7438 -67.7438 -67.7438
   -67.7437 -67.7437 -67.7437 -67.7437 -67.7436 -67.7436 -67.7435 -67.7435
   -67.7435 -67.7434 -67.7434 -67.7433 -67.7433 -67.7428 -35.6969 -35.6966
   -35.6961 -35.6960 -35.6957 -35.6957 -35.6957 -35.6957 -35.6956 -35.6955
   -35.6955 -35.6955 -35.6955 -35.6954 -35.6952 -35.6950 -35.6949 -35.6946
   -35.6920 -35.6920 -35.6917 -35.6917 -35.6913 -35.6912 -35.6911 -35.6911
   -35.6908 -35.6908 -35.6908 -35.6908 -35.6908 -35.6908 -35.6907 -35.6907
   -35.6907 -35.6907 -35.6906 -35.6906 -35.6906 -35.6906 -35.6906 -35.6906
   -35.6906 -35.6905 -35.6905 -35.6905 -35.6903 -35.6903 -35.6902 -35.6901
   -35.6900 -35.6899 -35.6897 -35.6896 -35.1782 -35.1781 -35.1778 -35.1778
   -35.1777 -35.1777 -35.1776 -35.1776 -35.1774 -35.1774 -35.1773 -35.1773
   -35.1773 -35.1773 -35.1773 -35.1772 -35.1772 -35.1772 -35.1772 -35.1771
   -35.1771 -35.1771 -35.1771 -35.1771 -35.1770 -35.1770 -35.1770 -35.1770
   -35.1769 -35.1769 -35.1768 -35.1768 -35.1768 -35.1767 -35.1767 -35.1766
   -35.1764 -35.1763 -35.1762 -35.1762 -35.1759 -35.1758 -35.1757 -35.1756
   -35.1755 -35.1755 -35.1754 -35.1753 -35.1752 -35.1752 -35.1750 -35.1749
   -35.1741 -35.1739 -35.1712 -35.1710 -35.1709 -35.1709 -35.1708 -35.1707
   -35.1707 -35.1706 -35.1706 -35.1705 -35.1705 -35.1705 -35.1705 -35.1704
   -35.1704 -35.1704 -35.1703 -35.1702 -35.1702 -35.1701 -35.1699 -35.1696
   -35.1696 -35.1695 -35.1693 -35.1693 -35.1692 -35.1691 -35.1689 -35.1689
   -35.1689 -35.1688 -35.1687 -35.1687 -35.1686 -35.1684 -35.1684 -35.1684
   -35.1684 -35.1683 -35.1682 -35.1682 -35.1682 -35.1681 -35.1681 -35.1681
   -35.1681 -35.1681 -35.1680 -35.1680 -35.1680 -35.1680 -35.1680 -35.1676
   -14.2180 -14.2172 -14.2167 -14.2162 -14.2159 -14.2157 -14.2155 -14.2154
   -14.2152 -14.2150 -14.2149 -14.2148 -14.2146 -14.2145 -14.2138 -14.2135
   -14.2134 -14.2130 -14.2124 -14.2117 -14.2115 -14.2112 -14.2106 -14.2104
   -14.2104 -14.2102 -14.2101 -14.2100 -14.2099 -14.2099 -14.2098 -14.2098
   -14.2098 -14.2096 -14.2095 -14.2094 -14.2093 -14.2092 -14.2090 -14.2090
   -14.2088 -14.2087 -14.2086 -14.2085 -14.2085 -14.2084 -14.2083 -14.2082
   -14.2081 -14.2080 -14.2078 -14.2076 -14.2074 -14.2073 -14.2072 -14.2068
   -14.2063 -14.2059 -14.2058 -14.2056 -14.2054 -14.2052 -14.2051 -14.2051
   -14.2048 -14.2046 -14.2043 -14.2038 -14.2037 -14.2033 -14.2031 -14.2027
   -14.1901 -14.1886 -14.1882 -14.1878 -14.1877 -14.1876 -14.1874 -14.1872
   -14.1870 -14.1867 -14.1865 -14.1864 -14.1864 -14.1861 -14.1860 -14.1857
   -14.1854 -14.1852 -14.1849 -14.1844 -14.1844 -14.1843 -14.1842 -14.1841
   -14.1838 -14.1837 -14.1836 -14.1834 -14.1833 -14.1830 -14.1830 -14.1829
   -14.1828 -14.1825 -14.1822 -14.1806 -14.1749 -14.1748 -14.1738 -14.1738
   -14.1733 -14.1730 -14.1725 -14.1723 -14.1721 -14.1718 -14.1718 -14.1715
   -14.1715 -14.1713 -14.1712 -14.1712 -14.1710 -14.1709 -14.1708 -14.1707
   -14.1703 -14.1703 -14.1702 -14.1700 -14.1698 -14.1693 -14.1691 -14.1690
   -14.1686 -14.1682 -14.1681 -14.1676 -14.1659 -14.1657 -14.1650 -14.1648
   -14.1646 -14.1643 -14.1642 -14.1641 -14.1640 -14.1638 -14.1635 -14.1635
   -14.1632 -14.1631 -14.1628 -14.1627 -14.1622 -14.1621 -14.1619 -14.1614
   -14.1603 -14.1598 -14.1596 -14.1593 -14.1592 -14.1590 -14.1586 -14.1584
   -14.1582 -14.1579 -14.1577 -14.1577 -14.1576 -14.1575 -14.1573 -14.1571
   -14.1569 -14.1565 -14.1561 -14.1558  -3.6873  -3.4168  -3.3938  -3.2659
    -3.2657  -3.1594  -3.1041  -3.0553  -3.0550  -3.0521  -3.0519  -2.9813
    -2.9055  -2.8858  -2.8856  -2.8318  -2.8293  -2.8290  -2.7667  -2.7665
    -2.7255  -2.7253  -2.7175  -2.7004  -2.6916  -2.6915  -2.6354  -2.6352
    -2.6000  -2.5789  -2.5787  -2.5652  -2.5650  -2.5470  -2.5400  -2.5398
     3.0350   3.1113   3.3157   3.3158   3.3559   3.4157   3.4159   3.5127
     3.5182   3.5324   3.5325   3.5766   3.5768   3.5985   3.5988   3.6637
     3.6640   3.7406   3.7408   3.7599   3.7600   3.9969   4.0155   4.0157
     4.1875   4.1877   4.2182   4.2186   4.2547   4.2551   4.2646   4.2922
     4.2967   4.2968   4.4120   4.4454   4.4456   4.5011   4.5267   4.5636
     4.5638   4.7612   4.8420   4.8421   4.9663   4.9666   4.9900   4.9902
     5.3058   5.6050   5.6052   5.6401   5.6402   5.7634   5.7751   5.7753
     5.7797   5.7799   5.8694   5.8695   5.9375   5.9376   6.0419   6.0945
     6.0948   6.1032   6.1480   6.1713   6.1714   6.1888   6.1901   6.2427
     6.4059   6.4413   6.4414   6.4462   6.4464   6.4693   6.4775   6.4777
     6.5512   6.6005   6.6241   6.6242   6.6719   6.6721   6.8465   6.9036
     6.9084   6.9144   6.9744   6.9745   7.0202   7.0205   7.0323   7.0454
     7.0456   7.0628   7.0629   7.1980   7.1982   7.2001   7.3071   7.3431
     7.3857   7.5918   7.7817   8.0324   8.3627   8.3935   8.4271   8.4274
     8.7361   8.7362   8.8034   8.8035   8.8590   8.8712   9.0136   9.0139
     9.0378   9.1289   9.1290   9.2096   9.3631   9.4332   9.4336   9.5561
     9.5563   9.5774   9.5776   9.6630   9.7038   9.7540   9.7918   9.8649
     9.9006   9.9233   9.9236   9.9613   9.9618  10.2039  10.2041  10.2430
    10.2432  10.2959  10.2995  10.2998  10.3130  10.3131  10.3968  10.4350
    10.6932  10.6936  10.7166  10.7171  10.7571  10.7703  10.8278  10.8280
    10.9002  10.9261  10.9263  10.9952  11.1225  11.1226  11.1554  11.1559
    11.2237  11.2238  11.2612  11.2644  11.2988  11.2993  11.3586  11.3588
    11.4219  11.7469  11.7521  11.7842  11.7843  11.9055  11.9984  11.9987
    12.0057  12.0059  12.0326  12.0328  12.0332  12.0335  12.0878  12.0928
    12.1099  12.1171  12.1173  12.1204  12.1962  12.1963  12.2064  12.2066
    12.3152  12.3985  12.3987  12.5038  12.5141  12.5143  12.5387  12.5693
    12.5737  12.5934  12.6839  12.6950  12.6953  12.7366  12.7378  12.8727

     occupation numbers 
     1.0000   1.0000   1.0000   1.0000   1.0000   1.0000   1.0000   1.0000
     1.0000   1.0000   1.0000   1.0000   1.0000   1.0000   1.0000   1.0000
     1.0000   1.0000   1.0000   1.0000   1.0000   1.0000   1.0000   1.0000
     1.0000   1.0000   1.0000   1.0000   1.0000   1.0000   1.0000   1.0000
     1.0000   1.0000   1.0000   1.0000   1.0000   1.0000   1.0000   1.0000
     1.0000   1.0000   1.0000   1.0000   1.0000   1.0000   1.0000   1.0000
     1.0000   1.0000   1.0000   1.0000   1.0000   1.0000   1.0000   1.0000
     1.0000   1.0000   1.0000   1.0000   1.0000   1.0000   1.0000   1.0000
     1.0000   1.0000   1.0000   1.0000   1.0000   1.0000   1.0000   1.0000
     1.0000   1.0000   1.0000   1.0000   1.0000   1.0000   1.0000   1.0000
     1.0000   1.0000   1.0000   1.0000   1.0000   1.0000   1.0000   1.0000
     1.0000   1.0000   1.0000   1.0000   1.0000   1.0000   1.0000   1.0000
     1.0000   1.0000   1.0000   1.0000   1.0000   1.0000   1.0000   1.0000
     1.0000   1.0000   1.0000   1.0000   1.0000   1.0000   1.0000   1.0000
     1.0000   1.0000   1.0000   1.0000   1.0000   1.0000   1.0000   1.0000
     1.0000   1.0000   1.0000   1.0000   1.0000   1.0000   1.0000   1.0000
     1.0000   1.0000   1.0000   1.0000   1.0000   1.0000   1.0000   1.0000
     1.0000   1.0000   1.0000   1.0000   1.0000   1.0000   1.0000   1.0000
     1.0000   1.0000   1.0000   1.0000   1.0000   1.0000   1.0000   1.0000
     1.0000   1.0000   1.0000   1.0000   1.0000   1.0000   1.0000   1.0000
     1.0000   1.0000   1.0000   1.0000   1.0000   1.0000   1.0000   1.0000
     1.0000   1.0000   1.0000   1.0000   1.0000   1.0000   1.0000   1.0000
     1.0000   1.0000   1.0000   1.0000   1.0000   1.0000   1.0000   1.0000
     1.0000   1.0000   1.0000   1.0000   1.0000   1.0000   1.0000   1.0000
     1.0000   1.0000   1.0000   1.0000   1.0000   1.0000   1.0000   1.0000
     1.0000   1.0000   1.0000   1.0000   1.0000   1.0000   1.0000   1.0000
     1.0000   1.0000   1.0000   1.0000   1.0000   1.0000   1.0000   1.0000
     1.0000   1.0000   1.0000   1.0000   1.0000   1.0000   1.0000   1.0000
     1.0000   1.0000   1.0000   1.0000   1.0000   1.0000   1.0000   1.0000
     1.0000   1.0000   1.0000   1.0000   1.0000   1.0000   1.0000   1.0000
     1.0000   1.0000   1.0000   1.0000   1.0000   1.0000   1.0000   1.0000
     1.0000   1.0000   1.0000   1.0000   1.0000   1.0000   1.0000   1.0000
     1.0000   1.0000   1.0000   1.0000   1.0000   1.0000   1.0000   1.0000
     1.0000   1.0000   1.0000   1.0000   1.0000   1.0000   1.0000   1.0000
     1.0000   1.0000   1.0000   1.0000   1.0000   1.0000   1.0000   1.0000
     1.0000   1.0000   1.0000   1.0000   1.0000   1.0000   1.0000   1.0000
     1.0000   1.0000   1.0000   1.0000   1.0000   1.0000   1.0000   1.0000
     1.0000   1.0000   1.0000   1.0000   1.0000   1.0000   1.0000   1.0000
     1.0000   1.0000   1.0000   1.0000   1.0000   1.0000   1.0000   1.0000
     1.0000   1.0000   1.0000   1.0000   1.0000   1.0000   1.0000   1.0000
     1.0000   1.0000   1.0000   1.0000   1.0000   1.0000   1.0000   1.0000
     1.0000   1.0000   1.0000   1.0000   1.0000   1.0000   1.0000   1.0000
     1.0000   1.0000   1.0000   1.0000   1.0000   1.0000   1.0000   1.0000
     1.0000   1.0000   1.0000   1.0000   1.0000   1.0000   1.0000   1.0000
     1.0000   1.0000   1.0000   1.0000   1.0000   1.0000   1.0000   1.0000
     1.0000   1.0000   1.0000   1.0000   1.0000   1.0000   1.0000   1.0000
     1.0000   1.0000   1.0000   1.0000   1.0000   1.0000   1.0000   1.0000
     1.0000   1.0000   1.0000   1.0000   1.0000   1.0000   1.0000   1.0000
     1.0000   1.0000   1.0000   1.0000   1.0000   1.0000   1.0000   1.0000
     1.0000   1.0000   1.0000   1.0000   1.0000   1.0000   1.0000   1.0000
     1.0000   1.0000   1.0000   1.0000   1.0000   1.0000   1.0000   1.0000
     1.0000   1.0000   1.0000   1.0000   1.0000   1.0000   1.0000   1.0000
     1.0000   1.0000   1.0000   1.0000   1.0000   1.0000   1.0000   1.0000
     1.0000   1.0000   1.0000   1.0000   1.0000   1.0000   1.0000   1.0000
     1.0000   1.0000   1.0000   1.0000   1.0000   1.0000   1.0000   1.0000
     1.0000   1.0000   1.0000   1.0000   1.0000   1.0000   1.0000   1.0000
     1.0000   1.0000   1.0000   1.0000   1.0000   1.0000   1.0000   1.0000
     1.0000   1.0000   1.0000   1.0000   1.0000   1.0000   1.0000   1.0000
     1.0000   1.0000   1.0000   1.0000   1.0000   1.0000   1.0000   1.0000
     1.0000   1.0000   1.0000   1.0000   1.0000   1.0000   1.0000   1.0000
     1.0000   1.0000   1.0000   1.0000   1.0000   1.0000   1.0000   1.0000
     1.0000   1.0000   1.0000   1.0000   1.0000   1.0000   1.0000   1.0000
     1.0000   1.0000   1.0000   1.0000   1.0000   1.0000   1.0000   1.0000
     1.0000   1.0000   1.0000   1.0000   1.0000   1.0000   1.0000   1.0000
     1.0000   1.0000   1.0000   1.0000   1.0000   1.0000   1.0000   1.0000
     1.0000   1.0000   1.0000   1.0000   1.0000   1.0000   1.0000   1.0000
     1.0000   1.0000   1.0000   1.0000   1.0000   1.0000   1.0000   1.0000
     1.0000   1.0002   1.0301   0.1899  -0.0002  -0.0001  -0.0000  -0.0000
    -0.0000  -0.0000  -0.0000  -0.0000  -0.0000  -0.0000  -0.0000  -0.0000
    -0.0000  -0.0000  -0.0000  -0.0000  -0.0000  -0.0000  -0.0000  -0.0000
    -0.0000  -0.0000  -0.0000  -0.0000  -0.0000  -0.0000  -0.0000  -0.0000
    -0.0000  -0.0000  -0.0000  -0.0000  -0.0000  -0.0000  -0.0000  -0.0000
    -0.0000  -0.0000  -0.0000  -0.0000  -0.0000  -0.0000  -0.0000  -0.0000
    -0.0000  -0.0000  -0.0000  -0.0000  -0.0000  -0.0000  -0.0000  -0.0000
    -0.0000  -0.0000  -0.0000  -0.0000  -0.0000  -0.0000  -0.0000  -0.0000
    -0.0000  -0.0000  -0.0000  -0.0000  -0.0000  -0.0000  -0.0000  -0.0000
    -0.0000  -0.0000  -0.0000  -0.0000  -0.0000  -0.0000  -0.0000  -0.0000
    -0.0000  -0.0000  -0.0000  -0.0000  -0.0000  -0.0000  -0.0000  -0.0000
    -0.0000  -0.0000  -0.0000  -0.0000  -0.0000  -0.0000  -0.0000  -0.0000
    -0.0000  -0.0000  -0.0000  -0.0000  -0.0000  -0.0000  -0.0000  -0.0000
    -0.0000  -0.0000  -0.0000  -0.0000  -0.0000  -0.0000  -0.0000  -0.0000

          k = 0.2500 0.1443 0.0000 (554671 PWs)   bands (ev):

   -68.2859 -68.2855 -68.2851 -68.2849 -68.2847 -68.2846 -68.2846 -68.2846
   -68.2846 -68.2845 -68.2845 -68.2845 -68.2844 -68.2844 -68.2841 -68.2840
   -68.2838 -68.2835 -67.7455 -67.7452 -67.7450 -67.7447 -67.7445 -67.7445
   -67.7444 -67.7443 -67.7443 -67.7443 -67.7442 -67.7442 -67.7442 -67.7441
   -67.7441 -67.7440 -67.7440 -67.7440 -67.7439 -67.7438 -67.7438 -67.7438
   -67.7437 -67.7437 -67.7436 -67.7436 -67.7436 -67.7436 -67.7436 -67.7435
   -67.7435 -67.7434 -67.7434 -67.7433 -67.7433 -67.7428 -35.6969 -35.6966
   -35.6961 -35.6960 -35.6957 -35.6957 -35.6957 -35.6957 -35.6956 -35.6955
   -35.6955 -35.6955 -35.6955 -35.6954 -35.6952 -35.6950 -35.6949 -35.6946
   -35.6920 -35.6920 -35.6917 -35.6917 -35.6913 -35.6912 -35.6911 -35.6911
   -35.6908 -35.6908 -35.6908 -35.6908 -35.6908 -35.6908 -35.6907 -35.6907
   -35.6907 -35.6907 -35.6906 -35.6906 -35.6906 -35.6906 -35.6906 -35.6906
   -35.6906 -35.6905 -35.6905 -35.6905 -35.6903 -35.6903 -35.6902 -35.6901
   -35.6900 -35.6899 -35.6897 -35.6896 -35.1782 -35.1781 -35.1778 -35.1778
   -35.1777 -35.1777 -35.1776 -35.1776 -35.1774 -35.1774 -35.1773 -35.1773
   -35.1773 -35.1773 -35.1773 -35.1772 -35.1772 -35.1772 -35.1772 -35.1771
   -35.1771 -35.1771 -35.1771 -35.1771 -35.1770 -35.1770 -35.1770 -35.1770
   -35.1769 -35.1769 -35.1768 -35.1768 -35.1768 -35.1767 -35.1767 -35.1766
   -35.1764 -35.1763 -35.1762 -35.1762 -35.1759 -35.1758 -35.1756 -35.1756
   -35.1756 -35.1755 -35.1754 -35.1753 -35.1752 -35.1751 -35.1750 -35.1749
   -35.1741 -35.1739 -35.1712 -35.1710 -35.1709 -35.1709 -35.1708 -35.1707
   -35.1707 -35.1706 -35.1706 -35.1705 -35.1705 -35.1705 -35.1704 -35.1704
   -35.1704 -35.1704 -35.1703 -35.1702 -35.1702 -35.1701 -35.1699 -35.1696
   -35.1696 -35.1695 -35.1693 -35.1693 -35.1692 -35.1691 -35.1689 -35.1689
   -35.1689 -35.1687 -35.1687 -35.1687 -35.1686 -35.1685 -35.1684 -35.1684
   -35.1684 -35.1683 -35.1682 -35.1682 -35.1682 -35.1681 -35.1681 -35.1681
   -35.1681 -35.1681 -35.1680 -35.1680 -35.1680 -35.1680 -35.1680 -35.1676
   -14.2178 -14.2175 -14.2166 -14.2162 -14.2159 -14.2157 -14.2155 -14.2155
   -14.2152 -14.2150 -14.2149 -14.2148 -14.2147 -14.2145 -14.2136 -14.2135
   -14.2134 -14.2131 -14.2123 -14.2118 -14.2114 -14.2112 -14.2106 -14.2105
   -14.2104 -14.2103 -14.2101 -14.2100 -14.2099 -14.2099 -14.2098 -14.2098
   -14.2097 -14.2096 -14.2095 -14.2093 -14.2092 -14.2091 -14.2090 -14.2089
   -14.2088 -14.2088 -14.2086 -14.2086 -14.2085 -14.2084 -14.2083 -14.2082
   -14.2081 -14.2079 -14.2078 -14.2076 -14.2075 -14.2072 -14.2072 -14.2069
   -14.2062 -14.2060 -14.2057 -14.2056 -14.2054 -14.2052 -14.2051 -14.2050
   -14.2049 -14.2045 -14.2044 -14.2037 -14.2037 -14.2034 -14.2029 -14.2028
   -14.1901 -14.1886 -14.1881 -14.1880 -14.1877 -14.1876 -14.1874 -14.1873
   -14.1869 -14.1867 -14.1865 -14.1865 -14.1863 -14.1862 -14.1860 -14.1857
   -14.1854 -14.1852 -14.1849 -14.1846 -14.1844 -14.1843 -14.1842 -14.1841
   -14.1838 -14.1836 -14.1834 -14.1834 -14.1833 -14.1831 -14.1830 -14.1829
   -14.1827 -14.1826 -14.1822 -14.1806 -14.1749 -14.1748 -14.1738 -14.1738
   -14.1731 -14.1730 -14.1724 -14.1723 -14.1721 -14.1720 -14.1718 -14.1716
   -14.1715 -14.1714 -14.1712 -14.1712 -14.1710 -14.1708 -14.1708 -14.1707
   -14.1703 -14.1702 -14.1701 -14.1700 -14.1698 -14.1692 -14.1691 -14.1690
   -14.1686 -14.1682 -14.1682 -14.1676 -14.1658 -14.1657 -14.1650 -14.1648
   -14.1647 -14.1645 -14.1643 -14.1642 -14.1639 -14.1638 -14.1635 -14.1634
   -14.1632 -14.1632 -14.1628 -14.1625 -14.1621 -14.1621 -14.1619 -14.1614
   -14.1601 -14.1600 -14.1595 -14.1594 -14.1593 -14.1590 -14.1585 -14.1584
   -14.1582 -14.1579 -14.1578 -14.1577 -14.1576 -14.1574 -14.1572 -14.1571
   -14.1569 -14.1564 -14.1561 -14.1557  -3.6874  -3.4168  -3.3938  -3.2661
    -3.2656  -3.1594  -3.1041  -3.0554  -3.0549  -3.0522  -3.0518  -2.9814
    -2.9055  -2.8859  -2.8854  -2.8318  -2.8294  -2.8288  -2.7669  -2.7663
    -2.7257  -2.7251  -2.7175  -2.7005  -2.6918  -2.6913  -2.6356  -2.6350
    -2.6000  -2.5791  -2.5785  -2.5653  -2.5648  -2.5470  -2.5402  -2.5397
     3.0350   3.1114   3.3158   3.3158   3.3561   3.4158   3.4159   3.5131
     3.5182   3.5323   3.5325   3.5765   3.5768   3.5984   3.5987   3.6635
     3.6639   3.7404   3.7411   3.7598   3.7599   3.9969   4.0153   4.0155
     4.1872   4.1877   4.2181   4.2187   4.2550   4.2551   4.2649   4.2924
     4.2967   4.2968   4.4120   4.4453   4.4456   4.5011   4.5269   4.5633
     4.5638   4.7612   4.8415   4.8421   4.9663   4.9666   4.9898   4.9905
     5.3061   5.6050   5.6052   5.6401   5.6402   5.7633   5.7749   5.7755
     5.7797   5.7798   5.8694   5.8697   5.9375   5.9380   6.0419   6.0945
     6.0948   6.1031   6.1482   6.1713   6.1715   6.1885   6.1901   6.2428
     6.4062   6.4413   6.4415   6.4460   6.4465   6.4692   6.4775   6.4779
     6.5510   6.6003   6.6241   6.6243   6.6718   6.6722   6.8462   6.9038
     6.9081   6.9147   6.9742   6.9747   7.0203   7.0205   7.0325   7.0453
     7.0457   7.0624   7.0631   7.1982   7.1984   7.1999   7.3069   7.3427
     7.3859   7.5915   7.7814   8.0324   8.3625   8.3937   8.4271   8.4274
     8.7360   8.7361   8.8035   8.8036   8.8590   8.8712   9.0137   9.0138
     9.0377   9.1291   9.1291   9.2097   9.3631   9.4333   9.4335   9.5560
     9.5562   9.5772   9.5778   9.6631   9.7036   9.7537   9.7917   9.8647
     9.9007   9.9232   9.9238   9.9613   9.9619  10.2040  10.2042  10.2431
    10.2433  10.2957  10.2995  10.2999  10.3130  10.3131  10.3968  10.4348
    10.6933  10.6936  10.7170  10.7172  10.7571  10.7702  10.8279  10.8279
    10.9000  10.9261  10.9262  10.9952  11.1226  11.1228  11.1553  11.1557
    11.2237  11.2238  11.2610  11.2642  11.2991  11.2994  11.3587  11.3589
    11.4217  11.7470  11.7521  11.7842  11.7846  11.9060  11.9985  11.9987
    12.0057  12.0060  12.0322  12.0327  12.0334  12.0336  12.0877  12.0926
    12.1099  12.1173  12.1175  12.1203  12.1963  12.1965  12.2063  12.2065
    12.3153  12.3985  12.3988  12.5040  12.5142  12.5146  12.5385  12.5694
    12.5735  12.5932  12.6838  12.6950  12.6952  12.7018  12.7377  12.7378

     occupation numbers 
     1.0000   1.0000   1.0000   1.0000   1.0000   1.0000   1.0000   1.0000
     1.0000   1.0000   1.0000   1.0000   1.0000   1.0000   1.0000   1.0000
     1.0000   1.0000   1.0000   1.0000   1.0000   1.0000   1.0000   1.0000
     1.0000   1.0000   1.0000   1.0000   1.0000   1.0000   1.0000   1.0000
     1.0000   1.0000   1.0000   1.0000   1.0000   1.0000   1.0000   1.0000
     1.0000   1.0000   1.0000   1.0000   1.0000   1.0000   1.0000   1.0000
     1.0000   1.0000   1.0000   1.0000   1.0000   1.0000   1.0000   1.0000
     1.0000   1.0000   1.0000   1.0000   1.0000   1.0000   1.0000   1.0000
     1.0000   1.0000   1.0000   1.0000   1.0000   1.0000   1.0000   1.0000
     1.0000   1.0000   1.0000   1.0000   1.0000   1.0000   1.0000   1.0000
     1.0000   1.0000   1.0000   1.0000   1.0000   1.0000   1.0000   1.0000
     1.0000   1.0000   1.0000   1.0000   1.0000   1.0000   1.0000   1.0000
     1.0000   1.0000   1.0000   1.0000   1.0000   1.0000   1.0000   1.0000
     1.0000   1.0000   1.0000   1.0000   1.0000   1.0000   1.0000   1.0000
     1.0000   1.0000   1.0000   1.0000   1.0000   1.0000   1.0000   1.0000
     1.0000   1.0000   1.0000   1.0000   1.0000   1.0000   1.0000   1.0000
     1.0000   1.0000   1.0000   1.0000   1.0000   1.0000   1.0000   1.0000
     1.0000   1.0000   1.0000   1.0000   1.0000   1.0000   1.0000   1.0000
     1.0000   1.0000   1.0000   1.0000   1.0000   1.0000   1.0000   1.0000
     1.0000   1.0000   1.0000   1.0000   1.0000   1.0000   1.0000   1.0000
     1.0000   1.0000   1.0000   1.0000   1.0000   1.0000   1.0000   1.0000
     1.0000   1.0000   1.0000   1.0000   1.0000   1.0000   1.0000   1.0000
     1.0000   1.0000   1.0000   1.0000   1.0000   1.0000   1.0000   1.0000
     1.0000   1.0000   1.0000   1.0000   1.0000   1.0000   1.0000   1.0000
     1.0000   1.0000   1.0000   1.0000   1.0000   1.0000   1.0000   1.0000
     1.0000   1.0000   1.0000   1.0000   1.0000   1.0000   1.0000   1.0000
     1.0000   1.0000   1.0000   1.0000   1.0000   1.0000   1.0000   1.0000
     1.0000   1.0000   1.0000   1.0000   1.0000   1.0000   1.0000   1.0000
     1.0000   1.0000   1.0000   1.0000   1.0000   1.0000   1.0000   1.0000
     1.0000   1.0000   1.0000   1.0000   1.0000   1.0000   1.0000   1.0000
     1.0000   1.0000   1.0000   1.0000   1.0000   1.0000   1.0000   1.0000
     1.0000   1.0000   1.0000   1.0000   1.0000   1.0000   1.0000   1.0000
     1.0000   1.0000   1.0000   1.0000   1.0000   1.0000   1.0000   1.0000
     1.0000   1.0000   1.0000   1.0000   1.0000   1.0000   1.0000   1.0000
     1.0000   1.0000   1.0000   1.0000   1.0000   1.0000   1.0000   1.0000
     1.0000   1.0000   1.0000   1.0000   1.0000   1.0000   1.0000   1.0000
     1.0000   1.0000   1.0000   1.0000   1.0000   1.0000   1.0000   1.0000
     1.0000   1.0000   1.0000   1.0000   1.0000   1.0000   1.0000   1.0000
     1.0000   1.0000   1.0000   1.0000   1.0000   1.0000   1.0000   1.0000
     1.0000   1.0000   1.0000   1.0000   1.0000   1.0000   1.0000   1.0000
     1.0000   1.0000   1.0000   1.0000   1.0000   1.0000   1.0000   1.0000
     1.0000   1.0000   1.0000   1.0000   1.0000   1.0000   1.0000   1.0000
     1.0000   1.0000   1.0000   1.0000   1.0000   1.0000   1.0000   1.0000
     1.0000   1.0000   1.0000   1.0000   1.0000   1.0000   1.0000   1.0000
     1.0000   1.0000   1.0000   1.0000   1.0000   1.0000   1.0000   1.0000
     1.0000   1.0000   1.0000   1.0000   1.0000   1.0000   1.0000   1.0000
     1.0000   1.0000   1.0000   1.0000   1.0000   1.0000   1.0000   1.0000
     1.0000   1.0000   1.0000   1.0000   1.0000   1.0000   1.0000   1.0000
     1.0000   1.0000   1.0000   1.0000   1.0000   1.0000   1.0000   1.0000
     1.0000   1.0000   1.0000   1.0000   1.0000   1.0000   1.0000   1.0000
     1.0000   1.0000   1.0000   1.0000   1.0000   1.0000   1.0000   1.0000
     1.0000   1.0000   1.0000   1.0000   1.0000   1.0000   1.0000   1.0000
     1.0000   1.0000   1.0000   1.0000   1.0000   1.0000   1.0000   1.0000
     1.0000   1.0000   1.0000   1.0000   1.0000   1.0000   1.0000   1.0000
     1.0000   1.0000   1.0000   1.0000   1.0000   1.0000   1.0000   1.0000
     1.0000   1.0000   1.0000   1.0000   1.0000   1.0000   1.0000   1.0000
     1.0000   1.0000   1.0000   1.0000   1.0000   1.0000   1.0000   1.0000
     1.0000   1.0000   1.0000   1.0000   1.0000   1.0000   1.0000   1.0000
     1.0000   1.0000   1.0000   1.0000   1.0000   1.0000   1.0000   1.0000
     1.0000   1.0000   1.0000   1.0000   1.0000   1.0000   1.0000   1.0000
     1.0000   1.0000   1.0000   1.0000   1.0000   1.0000   1.0000   1.0000
     1.0000   1.0000   1.0000   1.0000   1.0000   1.0000   1.0000   1.0000
     1.0000   1.0000   1.0000   1.0000   1.0000   1.0000   1.0000   1.0000
     1.0000   1.0000   1.0000   1.0000   1.0000   1.0000   1.0000   1.0000
     1.0000   1.0000   1.0000   1.0000   1.0000   1.0000   1.0000   1.0000
     1.0000   1.0000   1.0000   1.0000   1.0000   1.0000   1.0000   1.0000
     1.0000   1.0000   1.0000   1.0000   1.0000   1.0000   1.0000   1.0000
     1.0000   1.0002   1.0300   0.1898  -0.0002  -0.0001  -0.0000  -0.0000
    -0.0000  -0.0000  -0.0000  -0.0000  -0.0000  -0.0000  -0.0000  -0.0000
    -0.0000  -0.0000  -0.0000  -0.0000  -0.0000  -0.0000  -0.0000  -0.0000
    -0.0000  -0.0000  -0.0000  -0.0000  -0.0000  -0.0000  -0.0000  -0.0000
    -0.0000  -0.0000  -0.0000  -0.0000  -0.0000  -0.0000  -0.0000  -0.0000
    -0.0000  -0.0000  -0.0000  -0.0000  -0.0000  -0.0000  -0.0000  -0.0000
    -0.0000  -0.0000  -0.0000  -0.0000  -0.0000  -0.0000  -0.0000  -0.0000
    -0.0000  -0.0000  -0.0000  -0.0000  -0.0000  -0.0000  -0.0000  -0.0000
    -0.0000  -0.0000  -0.0000  -0.0000  -0.0000  -0.0000  -0.0000  -0.0000
    -0.0000  -0.0000  -0.0000  -0.0000  -0.0000  -0.0000  -0.0000  -0.0000
    -0.0000  -0.0000  -0.0000  -0.0000  -0.0000  -0.0000  -0.0000  -0.0000
    -0.0000  -0.0000  -0.0000  -0.0000  -0.0000  -0.0000  -0.0000  -0.0000
    -0.0000  -0.0000  -0.0000  -0.0000  -0.0000  -0.0000  -0.0000  -0.0000
    -0.0000  -0.0000  -0.0000  -0.0000  -0.0000  -0.0000  -0.0000  -0.0000

          k = 0.0000-0.2887 0.2373 (554660 PWs)   bands (ev):

   -68.2859 -68.2855 -68.2851 -68.2849 -68.2847 -68.2846 -68.2846 -68.2846
   -68.2846 -68.2845 -68.2845 -68.2845 -68.2844 -68.2844 -68.2841 -68.2840
   -68.2838 -68.2835 -67.7455 -67.7452 -67.7450 -67.7447 -67.7445 -67.7445
   -67.7444 -67.7443 -67.7443 -67.7443 -67.7442 -67.7442 -67.7442 -67.7442
   -67.7441 -67.7440 -67.7440 -67.7440 -67.7439 -67.7438 -67.7438 -67.7438
   -67.7437 -67.7437 -67.7436 -67.7436 -67.7436 -67.7436 -67.7436 -67.7435
   -67.7435 -67.7434 -67.7434 -67.7433 -67.7433 -67.7428 -35.6969 -35.6966
   -35.6961 -35.6960 -35.6957 -35.6957 -35.6957 -35.6957 -35.6956 -35.6955
   -35.6955 -35.6955 -35.6955 -35.6954 -35.6952 -35.6950 -35.6949 -35.6946
   -35.6920 -35.6920 -35.6917 -35.6917 -35.6913 -35.6912 -35.6911 -35.6911
   -35.6908 -35.6908 -35.6908 -35.6908 -35.6908 -35.6908 -35.6907 -35.6907
   -35.6907 -35.6907 -35.6906 -35.6906 -35.6906 -35.6906 -35.6906 -35.6906
   -35.6906 -35.6905 -35.6905 -35.6905 -35.6903 -35.6903 -35.6902 -35.6901
   -35.6900 -35.6899 -35.6897 -35.6896 -35.1782 -35.1781 -35.1779 -35.1778
   -35.1777 -35.1777 -35.1776 -35.1776 -35.1774 -35.1773 -35.1773 -35.1773
   -35.1773 -35.1773 -35.1773 -35.1772 -35.1772 -35.1772 -35.1772 -35.1771
   -35.1771 -35.1771 -35.1771 -35.1771 -35.1770 -35.1770 -35.1770 -35.1770
   -35.1769 -35.1769 -35.1768 -35.1768 -35.1768 -35.1767 -35.1767 -35.1766
   -35.1764 -35.1763 -35.1762 -35.1762 -35.1759 -35.1758 -35.1756 -35.1756
   -35.1755 -35.1755 -35.1754 -35.1753 -35.1752 -35.1752 -35.1750 -35.1749
   -35.1741 -35.1739 -35.1711 -35.1711 -35.1709 -35.1709 -35.1708 -35.1708
   -35.1707 -35.1706 -35.1706 -35.1705 -35.1705 -35.1705 -35.1704 -35.1704
   -35.1704 -35.1704 -35.1703 -35.1702 -35.1702 -35.1702 -35.1699 -35.1696
   -35.1696 -35.1695 -35.1693 -35.1693 -35.1693 -35.1691 -35.1689 -35.1689
   -35.1689 -35.1688 -35.1687 -35.1687 -35.1686 -35.1685 -35.1685 -35.1684
   -35.1684 -35.1683 -35.1682 -35.1682 -35.1682 -35.1681 -35.1681 -35.1681
   -35.1681 -35.1681 -35.1680 -35.1680 -35.1680 -35.1680 -35.1680 -35.1676
   -14.2178 -14.2174 -14.2166 -14.2164 -14.2160 -14.2158 -14.2154 -14.2153
   -14.2153 -14.2149 -14.2148 -14.2147 -14.2145 -14.2143 -14.2138 -14.2137
   -14.2136 -14.2128 -14.2123 -14.2120 -14.2115 -14.2113 -14.2108 -14.2106
   -14.2104 -14.2103 -14.2101 -14.2099 -14.2098 -14.2097 -14.2096 -14.2096
   -14.2095 -14.2095 -14.2094 -14.2093 -14.2093 -14.2092 -14.2091 -14.2090
   -14.2088 -14.2088 -14.2087 -14.2086 -14.2085 -14.2084 -14.2083 -14.2082
   -14.2080 -14.2080 -14.2078 -14.2077 -14.2075 -14.2074 -14.2072 -14.2069
   -14.2066 -14.2063 -14.2061 -14.2054 -14.2051 -14.2050 -14.2048 -14.2048
   -14.2046 -14.2044 -14.2043 -14.2040 -14.2039 -14.2035 -14.2031 -14.2027
   -14.1901 -14.1886 -14.1883 -14.1878 -14.1876 -14.1875 -14.1873 -14.1871
   -14.1870 -14.1867 -14.1867 -14.1866 -14.1865 -14.1863 -14.1861 -14.1857
   -14.1855 -14.1851 -14.1848 -14.1845 -14.1844 -14.1843 -14.1842 -14.1840
   -14.1838 -14.1837 -14.1836 -14.1834 -14.1832 -14.1830 -14.1829 -14.1829
   -14.1828 -14.1824 -14.1822 -14.1806 -14.1749 -14.1748 -14.1738 -14.1738
   -14.1732 -14.1731 -14.1724 -14.1722 -14.1720 -14.1718 -14.1717 -14.1716
   -14.1715 -14.1714 -14.1713 -14.1712 -14.1711 -14.1710 -14.1708 -14.1708
   -14.1703 -14.1702 -14.1701 -14.1699 -14.1698 -14.1694 -14.1693 -14.1689
   -14.1686 -14.1683 -14.1682 -14.1672 -14.1659 -14.1656 -14.1651 -14.1647
   -14.1647 -14.1644 -14.1642 -14.1641 -14.1640 -14.1639 -14.1635 -14.1635
   -14.1631 -14.1631 -14.1629 -14.1627 -14.1622 -14.1621 -14.1618 -14.1613
   -14.1603 -14.1597 -14.1595 -14.1592 -14.1591 -14.1590 -14.1586 -14.1583
   -14.1581 -14.1579 -14.1578 -14.1577 -14.1576 -14.1575 -14.1573 -14.1571
   -14.1569 -14.1565 -14.1561 -14.1559  -3.6617  -3.4846  -3.3719  -3.2449
    -3.2445  -3.2169  -3.1068  -3.1064  -3.0399  -3.0395  -3.0200  -2.9655
    -2.9255  -2.9251  -2.8716  -2.8382  -2.7673  -2.7667  -2.7610  -2.7588
    -2.7584  -2.7101  -2.7097  -2.6841  -2.6837  -2.6594  -2.6322  -2.6198
    -2.6194  -2.5943  -2.5939  -2.5843  -2.5839  -2.5640  -2.5573  -2.5569
     3.0858   3.1507   3.3184   3.3738   3.3740   3.4239   3.4241   3.4350
     3.4352   3.5259   3.5333   3.5335   3.6341   3.6343   3.6425   3.6875
     3.6879   3.6986   3.6989   3.7586   3.7592   3.9303   3.9792   4.0778
     4.0782   4.1031   4.2051   4.2054   4.2137   4.2140   4.2205   4.2209
     4.2561   4.2562   4.3348   4.4231   4.4235   4.5868   4.6459   4.6463
     4.6475   4.8385   4.8388   5.0940   5.0944   5.2379   5.2870   5.2874
     5.3643   5.4018   5.4022   5.5334   5.5338   5.5822   5.5968   5.5970
     5.6540   5.6543   5.7034   5.7972   5.9163   5.9165   5.9782   5.9785
     6.0304   6.0309   6.0753   6.1037   6.1038   6.2347   6.3661   6.3663
     6.3732   6.3978   6.4585   6.4969   6.4971   6.5022   6.5027   6.5800
     6.5803   6.7022   6.7079   6.7376   6.7407   6.7776   6.8615   6.9221
     6.9225   7.0087   7.0090   7.0133   7.0137   7.0142   7.0146   7.0679
     7.0683   7.0997   7.1340   7.2222   7.2285   7.2287   7.2842   7.3844
     7.4060   7.4842   7.7521   7.7711   7.9506   8.3880   8.6286   8.6290
     8.6964   8.6965   8.7017   8.7018   8.8257   9.0762   9.0763   9.1387
     9.1659   9.2490   9.2493   9.2772   9.2773   9.3594   9.3974   9.3995
     9.3997   9.4331   9.5559   9.6366   9.6874   9.7382   9.7740   9.7743
     9.9298   9.9302   9.9644   9.9650  10.0371  10.0371  10.1721  10.1725
    10.3042  10.3045  10.3878  10.3884  10.4145  10.4759  10.4883  10.4885
    10.5567  10.5583  10.5930  10.6871  10.6875  10.8210  10.8212  10.8235
    11.0365  11.0651  11.0654  11.0902  11.1101  11.2945  11.3403  11.3406
    11.3570  11.3779  11.3783  11.4120  11.4123  11.4824  11.4829  11.5556
    11.5561  11.6052  11.6257  11.6258  11.6589  11.6591  11.7525  11.8210
    11.8767  11.9140  11.9141  11.9215  11.9217  11.9531  11.9964  12.0142
    12.0147  12.0512  12.0513  12.1215  12.1220  12.1311  12.1770  12.1775
    12.1826  12.2102  12.2229  12.2319  12.2322  12.3841  12.3844  12.4255
    12.4859  12.5890  12.6068  12.6556  12.6561  12.7594  12.7600  12.8970

     occupation numbers 
     1.0000   1.0000   1.0000   1.0000   1.0000   1.0000   1.0000   1.0000
     1.0000   1.0000   1.0000   1.0000   1.0000   1.0000   1.0000   1.0000
     1.0000   1.0000   1.0000   1.0000   1.0000   1.0000   1.0000   1.0000
     1.0000   1.0000   1.0000   1.0000   1.0000   1.0000   1.0000   1.0000
     1.0000   1.0000   1.0000   1.0000   1.0000   1.0000   1.0000   1.0000
     1.0000   1.0000   1.0000   1.0000   1.0000   1.0000   1.0000   1.0000
     1.0000   1.0000   1.0000   1.0000   1.0000   1.0000   1.0000   1.0000
     1.0000   1.0000   1.0000   1.0000   1.0000   1.0000   1.0000   1.0000
     1.0000   1.0000   1.0000   1.0000   1.0000   1.0000   1.0000   1.0000
     1.0000   1.0000   1.0000   1.0000   1.0000   1.0000   1.0000   1.0000
     1.0000   1.0000   1.0000   1.0000   1.0000   1.0000   1.0000   1.0000
     1.0000   1.0000   1.0000   1.0000   1.0000   1.0000   1.0000   1.0000
     1.0000   1.0000   1.0000   1.0000   1.0000   1.0000   1.0000   1.0000
     1.0000   1.0000   1.0000   1.0000   1.0000   1.0000   1.0000   1.0000
     1.0000   1.0000   1.0000   1.0000   1.0000   1.0000   1.0000   1.0000
     1.0000   1.0000   1.0000   1.0000   1.0000   1.0000   1.0000   1.0000
     1.0000   1.0000   1.0000   1.0000   1.0000   1.0000   1.0000   1.0000
     1.0000   1.0000   1.0000   1.0000   1.0000   1.0000   1.0000   1.0000
     1.0000   1.0000   1.0000   1.0000   1.0000   1.0000   1.0000   1.0000
     1.0000   1.0000   1.0000   1.0000   1.0000   1.0000   1.0000   1.0000
     1.0000   1.0000   1.0000   1.0000   1.0000   1.0000   1.0000   1.0000
     1.0000   1.0000   1.0000   1.0000   1.0000   1.0000   1.0000   1.0000
     1.0000   1.0000   1.0000   1.0000   1.0000   1.0000   1.0000   1.0000
     1.0000   1.0000   1.0000   1.0000   1.0000   1.0000   1.0000   1.0000
     1.0000   1.0000   1.0000   1.0000   1.0000   1.0000   1.0000   1.0000
     1.0000   1.0000   1.0000   1.0000   1.0000   1.0000   1.0000   1.0000
     1.0000   1.0000   1.0000   1.0000   1.0000   1.0000   1.0000   1.0000
     1.0000   1.0000   1.0000   1.0000   1.0000   1.0000   1.0000   1.0000
     1.0000   1.0000   1.0000   1.0000   1.0000   1.0000   1.0000   1.0000
     1.0000   1.0000   1.0000   1.0000   1.0000   1.0000   1.0000   1.0000
     1.0000   1.0000   1.0000   1.0000   1.0000   1.0000   1.0000   1.0000
     1.0000   1.0000   1.0000   1.0000   1.0000   1.0000   1.0000   1.0000
     1.0000   1.0000   1.0000   1.0000   1.0000   1.0000   1.0000   1.0000
     1.0000   1.0000   1.0000   1.0000   1.0000   1.0000   1.0000   1.0000
     1.0000   1.0000   1.0000   1.0000   1.0000   1.0000   1.0000   1.0000
     1.0000   1.0000   1.0000   1.0000   1.0000   1.0000   1.0000   1.0000
     1.0000   1.0000   1.0000   1.0000   1.0000   1.0000   1.0000   1.0000
     1.0000   1.0000   1.0000   1.0000   1.0000   1.0000   1.0000   1.0000
     1.0000   1.0000   1.0000   1.0000   1.0000   1.0000   1.0000   1.0000
     1.0000   1.0000   1.0000   1.0000   1.0000   1.0000   1.0000   1.0000
     1.0000   1.0000   1.0000   1.0000   1.0000   1.0000   1.0000   1.0000
     1.0000   1.0000   1.0000   1.0000   1.0000   1.0000   1.0000   1.0000
     1.0000   1.0000   1.0000   1.0000   1.0000   1.0000   1.0000   1.0000
     1.0000   1.0000   1.0000   1.0000   1.0000   1.0000   1.0000   1.0000
     1.0000   1.0000   1.0000   1.0000   1.0000   1.0000   1.0000   1.0000
     1.0000   1.0000   1.0000   1.0000   1.0000   1.0000   1.0000   1.0000
     1.0000   1.0000   1.0000   1.0000   1.0000   1.0000   1.0000   1.0000
     1.0000   1.0000   1.0000   1.0000   1.0000   1.0000   1.0000   1.0000
     1.0000   1.0000   1.0000   1.0000   1.0000   1.0000   1.0000   1.0000
     1.0000   1.0000   1.0000   1.0000   1.0000   1.0000   1.0000   1.0000
     1.0000   1.0000   1.0000   1.0000   1.0000   1.0000   1.0000   1.0000
     1.0000   1.0000   1.0000   1.0000   1.0000   1.0000   1.0000   1.0000
     1.0000   1.0000   1.0000   1.0000   1.0000   1.0000   1.0000   1.0000
     1.0000   1.0000   1.0000   1.0000   1.0000   1.0000   1.0000   1.0000
     1.0000   1.0000   1.0000   1.0000   1.0000   1.0000   1.0000   1.0000
     1.0000   1.0000   1.0000   1.0000   1.0000   1.0000   1.0000   1.0000
     1.0000   1.0000   1.0000   1.0000   1.0000   1.0000   1.0000   1.0000
     1.0000   1.0000   1.0000   1.0000   1.0000   1.0000   1.0000   1.0000
     1.0000   1.0000   1.0000   1.0000   1.0000   1.0000   1.0000   1.0000
     1.0000   1.0000   1.0000   1.0000   1.0000   1.0000   1.0000   1.0000
     1.0000   1.0000   1.0000   1.0000   1.0000   1.0000   1.0000   1.0000
     1.0000   1.0000   1.0000   1.0000   1.0000   1.0000   1.0000   1.0000
     1.0000   1.0000   1.0000   1.0000   1.0000   1.0000   1.0000   1.0000
     1.0000   1.0000   1.0000   1.0000   1.0000   1.0000   1.0000   1.0000
     1.0000   1.0000   1.0000   1.0000   1.0000   1.0000   1.0000   1.0000
     1.0000   1.0000   1.0000   1.0000   1.0000   1.0000   1.0000   1.0000
     1.0000   1.0000   1.0000   1.0000   1.0000   1.0000   1.0000   1.0000
     1.0000   1.0000   1.0203   1.0267   0.6670  -0.0001  -0.0000  -0.0000
    -0.0000  -0.0000  -0.0000  -0.0000  -0.0000  -0.0000  -0.0000  -0.0000
    -0.0000  -0.0000  -0.0000  -0.0000  -0.0000  -0.0000  -0.0000  -0.0000
    -0.0000  -0.0000  -0.0000  -0.0000  -0.0000  -0.0000  -0.0000  -0.0000
    -0.0000  -0.0000  -0.0000  -0.0000  -0.0000  -0.0000  -0.0000  -0.0000
    -0.0000  -0.0000  -0.0000  -0.0000  -0.0000  -0.0000  -0.0000  -0.0000
    -0.0000  -0.0000  -0.0000  -0.0000  -0.0000  -0.0000  -0.0000  -0.0000
    -0.0000  -0.0000  -0.0000  -0.0000  -0.0000  -0.0000  -0.0000  -0.0000
    -0.0000  -0.0000  -0.0000  -0.0000  -0.0000  -0.0000  -0.0000  -0.0000
    -0.0000  -0.0000  -0.0000  -0.0000  -0.0000  -0.0000  -0.0000  -0.0000
    -0.0000  -0.0000  -0.0000  -0.0000  -0.0000  -0.0000  -0.0000  -0.0000
    -0.0000  -0.0000  -0.0000  -0.0000  -0.0000  -0.0000  -0.0000  -0.0000
    -0.0000  -0.0000  -0.0000  -0.0000  -0.0000  -0.0000  -0.0000  -0.0000
    -0.0000  -0.0000  -0.0000  -0.0000  -0.0000  -0.0000  -0.0000  -0.0000

          k =-0.2500 0.1443 0.2373 (554660 PWs)   bands (ev):

   -68.2859 -68.2855 -68.2851 -68.2849 -68.2847 -68.2846 -68.2846 -68.2846
   -68.2846 -68.2845 -68.2845 -68.2845 -68.2844 -68.2844 -68.2841 -68.2840
   -68.2838 -68.2835 -67.7455 -67.7452 -67.7450 -67.7447 -67.7445 -67.7445
   -67.7444 -67.7443 -67.7443 -67.7443 -67.7443 -67.7442 -67.7442 -67.7442
   -67.7441 -67.7440 -67.7440 -67.7440 -67.7439 -67.7438 -67.7438 -67.7438
   -67.7437 -67.7437 -67.7437 -67.7437 -67.7436 -67.7436 -67.7435 -67.7435
   -67.7435 -67.7434 -67.7434 -67.7433 -67.7433 -67.7428 -35.6969 -35.6966
   -35.6961 -35.6960 -35.6957 -35.6957 -35.6957 -35.6957 -35.6956 -35.6955
   -35.6955 -35.6955 -35.6955 -35.6954 -35.6952 -35.6950 -35.6949 -35.6946
   -35.6920 -35.6920 -35.6917 -35.6917 -35.6913 -35.6912 -35.6911 -35.6911
   -35.6908 -35.6908 -35.6908 -35.6908 -35.6908 -35.6908 -35.6907 -35.6907
   -35.6907 -35.6907 -35.6906 -35.6906 -35.6906 -35.6906 -35.6906 -35.6906
   -35.6906 -35.6905 -35.6905 -35.6905 -35.6903 -35.6903 -35.6902 -35.6901
   -35.6900 -35.6899 -35.6897 -35.6896 -35.1782 -35.1781 -35.1778 -35.1778
   -35.1777 -35.1777 -35.1776 -35.1776 -35.1774 -35.1774 -35.1773 -35.1773
   -35.1773 -35.1773 -35.1773 -35.1772 -35.1772 -35.1772 -35.1772 -35.1771
   -35.1771 -35.1771 -35.1771 -35.1771 -35.1770 -35.1770 -35.1770 -35.1770
   -35.1769 -35.1769 -35.1768 -35.1768 -35.1768 -35.1767 -35.1767 -35.1766
   -35.1764 -35.1763 -35.1762 -35.1762 -35.1759 -35.1758 -35.1757 -35.1756
   -35.1755 -35.1755 -35.1754 -35.1753 -35.1752 -35.1752 -35.1750 -35.1749
   -35.1741 -35.1739 -35.1712 -35.1710 -35.1709 -35.1709 -35.1708 -35.1707
   -35.1707 -35.1706 -35.1706 -35.1705 -35.1705 -35.1705 -35.1705 -35.1704
   -35.1704 -35.1704 -35.1703 -35.1702 -35.1702 -35.1701 -35.1699 -35.1696
   -35.1696 -35.1695 -35.1693 -35.1693 -35.1692 -35.1691 -35.1689 -35.1689
   -35.1689 -35.1688 -35.1687 -35.1687 -35.1686 -35.1684 -35.1684 -35.1684
   -35.1684 -35.1683 -35.1682 -35.1682 -35.1682 -35.1681 -35.1681 -35.1681
   -35.1681 -35.1681 -35.1680 -35.1680 -35.1680 -35.1680 -35.1680 -35.1676
   -14.2179 -14.2173 -14.2166 -14.2164 -14.2159 -14.2158 -14.2154 -14.2154
   -14.2153 -14.2149 -14.2148 -14.2146 -14.2145 -14.2143 -14.2138 -14.2136
   -14.2136 -14.2128 -14.2123 -14.2120 -14.2116 -14.2113 -14.2108 -14.2106
   -14.2104 -14.2103 -14.2101 -14.2100 -14.2098 -14.2097 -14.2096 -14.2095
   -14.2095 -14.2094 -14.2094 -14.2094 -14.2092 -14.2092 -14.2091 -14.2090
   -14.2088 -14.2087 -14.2087 -14.2086 -14.2085 -14.2084 -14.2083 -14.2082
   -14.2081 -14.2080 -14.2078 -14.2077 -14.2075 -14.2074 -14.2072 -14.2070
   -14.2066 -14.2063 -14.2062 -14.2053 -14.2051 -14.2050 -14.2049 -14.2047
   -14.2046 -14.2044 -14.2043 -14.2041 -14.2039 -14.2034 -14.2031 -14.2026
   -14.1901 -14.1886 -14.1883 -14.1878 -14.1876 -14.1875 -14.1873 -14.1871
   -14.1870 -14.1867 -14.1867 -14.1865 -14.1865 -14.1863 -14.1861 -14.1857
   -14.1854 -14.1851 -14.1848 -14.1845 -14.1844 -14.1843 -14.1842 -14.1841
   -14.1838 -14.1837 -14.1836 -14.1833 -14.1832 -14.1830 -14.1829 -14.1828
   -14.1828 -14.1824 -14.1823 -14.1806 -14.1749 -14.1748 -14.1738 -14.1738
   -14.1732 -14.1730 -14.1724 -14.1722 -14.1720 -14.1718 -14.1717 -14.1716
   -14.1715 -14.1714 -14.1713 -14.1713 -14.1711 -14.1710 -14.1708 -14.1707
   -14.1704 -14.1702 -14.1701 -14.1699 -14.1698 -14.1693 -14.1692 -14.1689
   -14.1687 -14.1683 -14.1682 -14.1672 -14.1659 -14.1657 -14.1651 -14.1647
   -14.1647 -14.1644 -14.1642 -14.1641 -14.1640 -14.1639 -14.1635 -14.1635
   -14.1631 -14.1631 -14.1629 -14.1627 -14.1622 -14.1621 -14.1618 -14.1613
   -14.1603 -14.1598 -14.1595 -14.1592 -14.1591 -14.1590 -14.1586 -14.1583
   -14.1580 -14.1579 -14.1578 -14.1577 -14.1576 -14.1575 -14.1573 -14.1571
   -14.1569 -14.1565 -14.1561 -14.1559  -3.6617  -3.4846  -3.3719  -3.2448
    -3.2446  -3.2169  -3.1067  -3.1065  -3.0398  -3.0396  -3.0200  -2.9654
    -2.9254  -2.9252  -2.8716  -2.8382  -2.7671  -2.7669  -2.7610  -2.7587
    -2.7585  -2.7100  -2.7098  -2.6840  -2.6838  -2.6594  -2.6322  -2.6197
    -2.6195  -2.5942  -2.5940  -2.5842  -2.5840  -2.5640  -2.5572  -2.5570
     3.0858   3.1507   3.3183   3.3739   3.3740   3.4239   3.4241   3.4350
     3.4352   3.5260   3.5334   3.5335   3.6342   3.6342   3.6423   3.6876
     3.6879   3.6987   3.6989   3.7588   3.7591   3.9302   3.9792   4.0779
     4.0782   4.1030   4.2052   4.2054   4.2139   4.2141   4.2206   4.2208
     4.2561   4.2562   4.3348   4.4232   4.4235   4.5869   4.6461   4.6462
     4.6473   4.8387   4.8388   5.0941   5.0943   5.2377   5.2871   5.2872
     5.3642   5.4020   5.4022   5.5335   5.5337   5.5822   5.5968   5.5970
     5.6540   5.6542   5.7034   5.7973   5.9162   5.9163   5.9780   5.9784
     6.0306   6.0309   6.0754   6.1036   6.1038   6.2347   6.3661   6.3662
     6.3731   6.3977   6.4586   6.4967   6.4969   6.5023   6.5026   6.5802
     6.5803   6.7023   6.7077   6.7375   6.7406   6.7776   6.8617   6.9221
     6.9224   7.0088   7.0089   7.0135   7.0137   7.0143   7.0146   7.0680
     7.0682   7.0998   7.1341   7.2223   7.2285   7.2286   7.2841   7.3844
     7.4062   7.4844   7.7520   7.7713   7.9505   8.3881   8.6286   8.6290
     8.6963   8.6965   8.7016   8.7018   8.8258   9.0762   9.0763   9.1387
     9.1659   9.2491   9.2493   9.2771   9.2772   9.3595   9.3975   9.3994
     9.3997   9.4331   9.5559   9.6367   9.6875   9.7382   9.7740   9.7742
     9.9298   9.9301   9.9645   9.9648  10.0370  10.0371  10.1721  10.1724
    10.3043  10.3044  10.3878  10.3883  10.4145  10.4759  10.4882  10.4884
    10.5568  10.5583  10.5929  10.6872  10.6875  10.8211  10.8212  10.8236
    11.0366  11.0652  11.0653  11.0902  11.1101  11.2946  11.3402  11.3403
    11.3571  11.3780  11.3782  11.4121  11.4123  11.4826  11.4829  11.5558
    11.5562  11.6051  11.6257  11.6258  11.6588  11.6589  11.7526  11.8209
    11.8768  11.9139  11.9140  11.9214  11.9218  11.9528  11.9964  12.0144
    12.0147  12.0511  12.0512  12.1215  12.1218  12.1313  12.1772  12.1776
    12.1826  12.2103  12.2228  12.2319  12.2322  12.3842  12.3843  12.4256
    12.4858  12.5890  12.6067  12.6556  12.6558  12.7595  12.7596  12.8493

     occupation numbers 
     1.0000   1.0000   1.0000   1.0000   1.0000   1.0000   1.0000   1.0000
     1.0000   1.0000   1.0000   1.0000   1.0000   1.0000   1.0000   1.0000
     1.0000   1.0000   1.0000   1.0000   1.0000   1.0000   1.0000   1.0000
     1.0000   1.0000   1.0000   1.0000   1.0000   1.0000   1.0000   1.0000
     1.0000   1.0000   1.0000   1.0000   1.0000   1.0000   1.0000   1.0000
     1.0000   1.0000   1.0000   1.0000   1.0000   1.0000   1.0000   1.0000
     1.0000   1.0000   1.0000   1.0000   1.0000   1.0000   1.0000   1.0000
     1.0000   1.0000   1.0000   1.0000   1.0000   1.0000   1.0000   1.0000
     1.0000   1.0000   1.0000   1.0000   1.0000   1.0000   1.0000   1.0000
     1.0000   1.0000   1.0000   1.0000   1.0000   1.0000   1.0000   1.0000
     1.0000   1.0000   1.0000   1.0000   1.0000   1.0000   1.0000   1.0000
     1.0000   1.0000   1.0000   1.0000   1.0000   1.0000   1.0000   1.0000
     1.0000   1.0000   1.0000   1.0000   1.0000   1.0000   1.0000   1.0000
     1.0000   1.0000   1.0000   1.0000   1.0000   1.0000   1.0000   1.0000
     1.0000   1.0000   1.0000   1.0000   1.0000   1.0000   1.0000   1.0000
     1.0000   1.0000   1.0000   1.0000   1.0000   1.0000   1.0000   1.0000
     1.0000   1.0000   1.0000   1.0000   1.0000   1.0000   1.0000   1.0000
     1.0000   1.0000   1.0000   1.0000   1.0000   1.0000   1.0000   1.0000
     1.0000   1.0000   1.0000   1.0000   1.0000   1.0000   1.0000   1.0000
     1.0000   1.0000   1.0000   1.0000   1.0000   1.0000   1.0000   1.0000
     1.0000   1.0000   1.0000   1.0000   1.0000   1.0000   1.0000   1.0000
     1.0000   1.0000   1.0000   1.0000   1.0000   1.0000   1.0000   1.0000
     1.0000   1.0000   1.0000   1.0000   1.0000   1.0000   1.0000   1.0000
     1.0000   1.0000   1.0000   1.0000   1.0000   1.0000   1.0000   1.0000
     1.0000   1.0000   1.0000   1.0000   1.0000   1.0000   1.0000   1.0000
     1.0000   1.0000   1.0000   1.0000   1.0000   1.0000   1.0000   1.0000
     1.0000   1.0000   1.0000   1.0000   1.0000   1.0000   1.0000   1.0000
     1.0000   1.0000   1.0000   1.0000   1.0000   1.0000   1.0000   1.0000
     1.0000   1.0000   1.0000   1.0000   1.0000   1.0000   1.0000   1.0000
     1.0000   1.0000   1.0000   1.0000   1.0000   1.0000   1.0000   1.0000
     1.0000   1.0000   1.0000   1.0000   1.0000   1.0000   1.0000   1.0000
     1.0000   1.0000   1.0000   1.0000   1.0000   1.0000   1.0000   1.0000
     1.0000   1.0000   1.0000   1.0000   1.0000   1.0000   1.0000   1.0000
     1.0000   1.0000   1.0000   1.0000   1.0000   1.0000   1.0000   1.0000
     1.0000   1.0000   1.0000   1.0000   1.0000   1.0000   1.0000   1.0000
     1.0000   1.0000   1.0000   1.0000   1.0000   1.0000   1.0000   1.0000
     1.0000   1.0000   1.0000   1.0000   1.0000   1.0000   1.0000   1.0000
     1.0000   1.0000   1.0000   1.0000   1.0000   1.0000   1.0000   1.0000
     1.0000   1.0000   1.0000   1.0000   1.0000   1.0000   1.0000   1.0000
     1.0000   1.0000   1.0000   1.0000   1.0000   1.0000   1.0000   1.0000
     1.0000   1.0000   1.0000   1.0000   1.0000   1.0000   1.0000   1.0000
     1.0000   1.0000   1.0000   1.0000   1.0000   1.0000   1.0000   1.0000
     1.0000   1.0000   1.0000   1.0000   1.0000   1.0000   1.0000   1.0000
     1.0000   1.0000   1.0000   1.0000   1.0000   1.0000   1.0000   1.0000
     1.0000   1.0000   1.0000   1.0000   1.0000   1.0000   1.0000   1.0000
     1.0000   1.0000   1.0000   1.0000   1.0000   1.0000   1.0000   1.0000
     1.0000   1.0000   1.0000   1.0000   1.0000   1.0000   1.0000   1.0000
     1.0000   1.0000   1.0000   1.0000   1.0000   1.0000   1.0000   1.0000
     1.0000   1.0000   1.0000   1.0000   1.0000   1.0000   1.0000   1.0000
     1.0000   1.0000   1.0000   1.0000   1.0000   1.0000   1.0000   1.0000
     1.0000   1.0000   1.0000   1.0000   1.0000   1.0000   1.0000   1.0000
     1.0000   1.0000   1.0000   1.0000   1.0000   1.0000   1.0000   1.0000
     1.0000   1.0000   1.0000   1.0000   1.0000   1.0000   1.0000   1.0000
     1.0000   1.0000   1.0000   1.0000   1.0000   1.0000   1.0000   1.0000
     1.0000   1.0000   1.0000   1.0000   1.0000   1.0000   1.0000   1.0000
     1.0000   1.0000   1.0000   1.0000   1.0000   1.0000   1.0000   1.0000
     1.0000   1.0000   1.0000   1.0000   1.0000   1.0000   1.0000   1.0000
     1.0000   1.0000   1.0000   1.0000   1.0000   1.0000   1.0000   1.0000
     1.0000   1.0000   1.0000   1.0000   1.0000   1.0000   1.0000   1.0000
     1.0000   1.0000   1.0000   1.0000   1.0000   1.0000   1.0000   1.0000
     1.0000   1.0000   1.0000   1.0000   1.0000   1.0000   1.0000   1.0000
     1.0000   1.0000   1.0000   1.0000   1.0000   1.0000   1.0000   1.0000
     1.0000   1.0000   1.0000   1.0000   1.0000   1.0000   1.0000   1.0000
     1.0000   1.0000   1.0000   1.0000   1.0000   1.0000   1.0000   1.0000
     1.0000   1.0000   1.0000   1.0000   1.0000   1.0000   1.0000   1.0000
     1.0000   1.0000   1.0000   1.0000   1.0000   1.0000   1.0000   1.0000
     1.0000   1.0000   1.0000   1.0000   1.0000   1.0000   1.0000   1.0000
     1.0000   1.0000   1.0203   1.0268   0.6673  -0.0001  -0.0000  -0.0000
    -0.0000  -0.0000  -0.0000  -0.0000  -0.0000  -0.0000  -0.0000  -0.0000
    -0.0000  -0.0000  -0.0000  -0.0000  -0.0000  -0.0000  -0.0000  -0.0000
    -0.0000  -0.0000  -0.0000  -0.0000  -0.0000  -0.0000  -0.0000  -0.0000
    -0.0000  -0.0000  -0.0000  -0.0000  -0.0000  -0.0000  -0.0000  -0.0000
    -0.0000  -0.0000  -0.0000  -0.0000  -0.0000  -0.0000  -0.0000  -0.0000
    -0.0000  -0.0000  -0.0000  -0.0000  -0.0000  -0.0000  -0.0000  -0.0000
    -0.0000  -0.0000  -0.0000  -0.0000  -0.0000  -0.0000  -0.0000  -0.0000
    -0.0000  -0.0000  -0.0000  -0.0000  -0.0000  -0.0000  -0.0000  -0.0000
    -0.0000  -0.0000  -0.0000  -0.0000  -0.0000  -0.0000  -0.0000  -0.0000
    -0.0000  -0.0000  -0.0000  -0.0000  -0.0000  -0.0000  -0.0000  -0.0000
    -0.0000  -0.0000  -0.0000  -0.0000  -0.0000  -0.0000  -0.0000  -0.0000
    -0.0000  -0.0000  -0.0000  -0.0000  -0.0000  -0.0000  -0.0000  -0.0000
    -0.0000  -0.0000  -0.0000  -0.0000  -0.0000  -0.0000  -0.0000  -0.0000

          k = 0.2500 0.1443 0.2373 (554660 PWs)   bands (ev):

   -68.2859 -68.2855 -68.2851 -68.2849 -68.2847 -68.2846 -68.2846 -68.2846
   -68.2846 -68.2845 -68.2845 -68.2845 -68.2844 -68.2844 -68.2841 -68.2840
   -68.2838 -68.2835 -67.7455 -67.7452 -67.7450 -67.7447 -67.7445 -67.7445
   -67.7444 -67.7443 -67.7443 -67.7443 -67.7442 -67.7442 -67.7442 -67.7441
   -67.7441 -67.7440 -67.7440 -67.7440 -67.7439 -67.7438 -67.7438 -67.7438
   -67.7437 -67.7437 -67.7436 -67.7436 -67.7436 -67.7436 -67.7436 -67.7435
   -67.7435 -67.7434 -67.7434 -67.7433 -67.7433 -67.7428 -35.6969 -35.6966
   -35.6961 -35.6960 -35.6957 -35.6957 -35.6957 -35.6957 -35.6956 -35.6955
   -35.6955 -35.6955 -35.6955 -35.6954 -35.6952 -35.6950 -35.6949 -35.6946
   -35.6920 -35.6920 -35.6917 -35.6917 -35.6913 -35.6912 -35.6911 -35.6911
   -35.6908 -35.6908 -35.6908 -35.6908 -35.6908 -35.6908 -35.6907 -35.6907
   -35.6907 -35.6907 -35.6906 -35.6906 -35.6906 -35.6906 -35.6906 -35.6906
   -35.6906 -35.6905 -35.6905 -35.6905 -35.6903 -35.6903 -35.6902 -35.6901
   -35.6900 -35.6899 -35.6897 -35.6896 -35.1782 -35.1781 -35.1778 -35.1778
   -35.1777 -35.1777 -35.1776 -35.1776 -35.1774 -35.1774 -35.1773 -35.1773
   -35.1773 -35.1773 -35.1773 -35.1772 -35.1772 -35.1772 -35.1772 -35.1771
   -35.1771 -35.1771 -35.1771 -35.1771 -35.1770 -35.1770 -35.1770 -35.1770
   -35.1769 -35.1769 -35.1768 -35.1768 -35.1768 -35.1767 -35.1767 -35.1766
   -35.1764 -35.1763 -35.1762 -35.1762 -35.1759 -35.1758 -35.1756 -35.1756
   -35.1756 -35.1755 -35.1754 -35.1753 -35.1752 -35.1751 -35.1750 -35.1749
   -35.1741 -35.1739 -35.1712 -35.1710 -35.1709 -35.1709 -35.1708 -35.1707
   -35.1707 -35.1706 -35.1706 -35.1705 -35.1705 -35.1705 -35.1704 -35.1704
   -35.1704 -35.1704 -35.1703 -35.1702 -35.1702 -35.1701 -35.1699 -35.1696
   -35.1696 -35.1695 -35.1693 -35.1693 -35.1692 -35.1691 -35.1689 -35.1689
   -35.1689 -35.1687 -35.1687 -35.1687 -35.1686 -35.1685 -35.1684 -35.1684
   -35.1684 -35.1683 -35.1682 -35.1682 -35.1682 -35.1681 -35.1681 -35.1681
   -35.1681 -35.1681 -35.1680 -35.1680 -35.1680 -35.1680 -35.1680 -35.1676
   -14.2178 -14.2175 -14.2166 -14.2164 -14.2160 -14.2157 -14.2155 -14.2153
   -14.2152 -14.2149 -14.2148 -14.2146 -14.2145 -14.2143 -14.2137 -14.2137
   -14.2135 -14.2130 -14.2122 -14.2120 -14.2115 -14.2113 -14.2108 -14.2107
   -14.2104 -14.2103 -14.2102 -14.2101 -14.2098 -14.2097 -14.2096 -14.2096
   -14.2095 -14.2095 -14.2094 -14.2093 -14.2092 -14.2091 -14.2091 -14.2089
   -14.2089 -14.2087 -14.2086 -14.2086 -14.2085 -14.2084 -14.2083 -14.2082
   -14.2081 -14.2079 -14.2078 -14.2077 -14.2077 -14.2073 -14.2071 -14.2070
   -14.2066 -14.2064 -14.2061 -14.2054 -14.2052 -14.2050 -14.2048 -14.2047
   -14.2047 -14.2044 -14.2043 -14.2040 -14.2039 -14.2035 -14.2030 -14.2028
   -14.1901 -14.1885 -14.1882 -14.1879 -14.1876 -14.1874 -14.1873 -14.1872
   -14.1870 -14.1867 -14.1866 -14.1866 -14.1864 -14.1863 -14.1862 -14.1857
   -14.1854 -14.1852 -14.1848 -14.1846 -14.1844 -14.1844 -14.1842 -14.1841
   -14.1838 -14.1836 -14.1834 -14.1833 -14.1832 -14.1830 -14.1830 -14.1829
   -14.1827 -14.1825 -14.1823 -14.1806 -14.1749 -14.1748 -14.1738 -14.1738
   -14.1731 -14.1730 -14.1724 -14.1722 -14.1721 -14.1719 -14.1717 -14.1716
   -14.1715 -14.1714 -14.1713 -14.1713 -14.1711 -14.1709 -14.1708 -14.1707
   -14.1702 -14.1702 -14.1701 -14.1700 -14.1698 -14.1693 -14.1692 -14.1689
   -14.1688 -14.1682 -14.1682 -14.1673 -14.1658 -14.1656 -14.1651 -14.1648
   -14.1647 -14.1645 -14.1643 -14.1641 -14.1640 -14.1639 -14.1635 -14.1635
   -14.1631 -14.1631 -14.1628 -14.1626 -14.1623 -14.1621 -14.1618 -14.1613
   -14.1602 -14.1599 -14.1595 -14.1592 -14.1591 -14.1590 -14.1586 -14.1582
   -14.1580 -14.1579 -14.1578 -14.1577 -14.1576 -14.1575 -14.1573 -14.1572
   -14.1569 -14.1565 -14.1562 -14.1559  -3.6617  -3.4846  -3.3720  -3.2449
    -3.2445  -3.2169  -3.1068  -3.1063  -3.0400  -3.0394  -3.0200  -2.9655
    -2.9255  -2.9251  -2.8717  -2.8382  -2.7673  -2.7667  -2.7610  -2.7589
    -2.7583  -2.7102  -2.7096  -2.6842  -2.6836  -2.6594  -2.6322  -2.6199
    -2.6193  -2.5944  -2.5938  -2.5844  -2.5838  -2.5640  -2.5574  -2.5568
     3.0858   3.1507   3.3185   3.3738   3.3739   3.4240   3.4241   3.4350
     3.4352   3.5259   3.5333   3.5335   3.6341   3.6343   3.6427   3.6875
     3.6878   3.6986   3.6988   3.7586   3.7591   3.9305   3.9792   4.0779
     4.0781   4.1033   4.2051   4.2053   4.2137   4.2139   4.2206   4.2208
     4.2561   4.2563   4.3348   4.4231   4.4235   4.5867   4.6460   4.6461
     4.6476   4.8383   4.8387   5.0940   5.0943   5.2380   5.2869   5.2877
     5.3644   5.4018   5.4020   5.5335   5.5336   5.5822   5.5968   5.5970
     5.6541   5.6542   5.7034   5.7971   5.9163   5.9167   5.9782   5.9788
     6.0304   6.0309   6.0752   6.1037   6.1038   6.2346   6.3662   6.3664
     6.3734   6.3979   6.4584   6.4969   6.4975   6.5022   6.5026   6.5799
     6.5804   6.7021   6.7081   6.7377   6.7407   6.7776   6.8614   6.9223
     6.9224   7.0086   7.0092   7.0133   7.0137   7.0142   7.0144   7.0680
     7.0682   7.0996   7.1338   7.2221   7.2284   7.2289   7.2842   7.3845
     7.4059   7.4841   7.7522   7.7710   7.9506   8.3879   8.6286   8.6289
     8.6964   8.6965   8.7017   8.7018   8.8256   9.0762   9.0762   9.1387
     9.1659   9.2488   9.2495   9.2772   9.2773   9.3593   9.3973   9.3995
     9.3996   9.4331   9.5559   9.6365   9.6873   9.7382   9.7741   9.7744
     9.9297   9.9303   9.9646   9.9649  10.0371  10.0371  10.1720  10.1727
    10.3042  10.3044  10.3880  10.3883  10.4144  10.4759  10.4884  10.4886
    10.5566  10.5584  10.5931  10.6870  10.6875  10.8210  10.8212  10.8235
    11.0364  11.0652  11.0653  11.0902  11.1102  11.2945  11.3404  11.3408
    11.3569  11.3778  11.3783  11.4120  11.4123  11.4823  11.4829  11.5556
    11.5559  11.6053  11.6258  11.6258  11.6590  11.6593  11.7524  11.8211
    11.8766  11.9141  11.9141  11.9215  11.9217  11.9533  11.9964  12.0141
    12.0146  12.0513  12.0514  12.1217  12.1221  12.1310  12.1770  12.1772
    12.1826  12.2101  12.2230  12.2319  12.2321  12.3841  12.3844  12.4253
    12.4860  12.5891  12.6069  12.6558  12.6561  12.7593  12.7594  12.8492

     occupation numbers 
     1.0000   1.0000   1.0000   1.0000   1.0000   1.0000   1.0000   1.0000
     1.0000   1.0000   1.0000   1.0000   1.0000   1.0000   1.0000   1.0000
     1.0000   1.0000   1.0000   1.0000   1.0000   1.0000   1.0000   1.0000
     1.0000   1.0000   1.0000   1.0000   1.0000   1.0000   1.0000   1.0000
     1.0000   1.0000   1.0000   1.0000   1.0000   1.0000   1.0000   1.0000
     1.0000   1.0000   1.0000   1.0000   1.0000   1.0000   1.0000   1.0000
     1.0000   1.0000   1.0000   1.0000   1.0000   1.0000   1.0000   1.0000
     1.0000   1.0000   1.0000   1.0000   1.0000   1.0000   1.0000   1.0000
     1.0000   1.0000   1.0000   1.0000   1.0000   1.0000   1.0000   1.0000
     1.0000   1.0000   1.0000   1.0000   1.0000   1.0000   1.0000   1.0000
     1.0000   1.0000   1.0000   1.0000   1.0000   1.0000   1.0000   1.0000
     1.0000   1.0000   1.0000   1.0000   1.0000   1.0000   1.0000   1.0000
     1.0000   1.0000   1.0000   1.0000   1.0000   1.0000   1.0000   1.0000
     1.0000   1.0000   1.0000   1.0000   1.0000   1.0000   1.0000   1.0000
     1.0000   1.0000   1.0000   1.0000   1.0000   1.0000   1.0000   1.0000
     1.0000   1.0000   1.0000   1.0000   1.0000   1.0000   1.0000   1.0000
     1.0000   1.0000   1.0000   1.0000   1.0000   1.0000   1.0000   1.0000
     1.0000   1.0000   1.0000   1.0000   1.0000   1.0000   1.0000   1.0000
     1.0000   1.0000   1.0000   1.0000   1.0000   1.0000   1.0000   1.0000
     1.0000   1.0000   1.0000   1.0000   1.0000   1.0000   1.0000   1.0000
     1.0000   1.0000   1.0000   1.0000   1.0000   1.0000   1.0000   1.0000
     1.0000   1.0000   1.0000   1.0000   1.0000   1.0000   1.0000   1.0000
     1.0000   1.0000   1.0000   1.0000   1.0000   1.0000   1.0000   1.0000
     1.0000   1.0000   1.0000   1.0000   1.0000   1.0000   1.0000   1.0000
     1.0000   1.0000   1.0000   1.0000   1.0000   1.0000   1.0000   1.0000
     1.0000   1.0000   1.0000   1.0000   1.0000   1.0000   1.0000   1.0000
     1.0000   1.0000   1.0000   1.0000   1.0000   1.0000   1.0000   1.0000
     1.0000   1.0000   1.0000   1.0000   1.0000   1.0000   1.0000   1.0000
     1.0000   1.0000   1.0000   1.0000   1.0000   1.0000   1.0000   1.0000
     1.0000   1.0000   1.0000   1.0000   1.0000   1.0000   1.0000   1.0000
     1.0000   1.0000   1.0000   1.0000   1.0000   1.0000   1.0000   1.0000
     1.0000   1.0000   1.0000   1.0000   1.0000   1.0000   1.0000   1.0000
     1.0000   1.0000   1.0000   1.0000   1.0000   1.0000   1.0000   1.0000
     1.0000   1.0000   1.0000   1.0000   1.0000   1.0000   1.0000   1.0000
     1.0000   1.0000   1.0000   1.0000   1.0000   1.0000   1.0000   1.0000
     1.0000   1.0000   1.0000   1.0000   1.0000   1.0000   1.0000   1.0000
     1.0000   1.0000   1.0000   1.0000   1.0000   1.0000   1.0000   1.0000
     1.0000   1.0000   1.0000   1.0000   1.0000   1.0000   1.0000   1.0000
     1.0000   1.0000   1.0000   1.0000   1.0000   1.0000   1.0000   1.0000
     1.0000   1.0000   1.0000   1.0000   1.0000   1.0000   1.0000   1.0000
     1.0000   1.0000   1.0000   1.0000   1.0000   1.0000   1.0000   1.0000
     1.0000   1.0000   1.0000   1.0000   1.0000   1.0000   1.0000   1.0000
     1.0000   1.0000   1.0000   1.0000   1.0000   1.0000   1.0000   1.0000
     1.0000   1.0000   1.0000   1.0000   1.0000   1.0000   1.0000   1.0000
     1.0000   1.0000   1.0000   1.0000   1.0000   1.0000   1.0000   1.0000
     1.0000   1.0000   1.0000   1.0000   1.0000   1.0000   1.0000   1.0000
     1.0000   1.0000   1.0000   1.0000   1.0000   1.0000   1.0000   1.0000
     1.0000   1.0000   1.0000   1.0000   1.0000   1.0000   1.0000   1.0000
     1.0000   1.0000   1.0000   1.0000   1.0000   1.0000   1.0000   1.0000
     1.0000   1.0000   1.0000   1.0000   1.0000   1.0000   1.0000   1.0000
     1.0000   1.0000   1.0000   1.0000   1.0000   1.0000   1.0000   1.0000
     1.0000   1.0000   1.0000   1.0000   1.0000   1.0000   1.0000   1.0000
     1.0000   1.0000   1.0000   1.0000   1.0000   1.0000   1.0000   1.0000
     1.0000   1.0000   1.0000   1.0000   1.0000   1.0000   1.0000   1.0000
     1.0000   1.0000   1.0000   1.0000   1.0000   1.0000   1.0000   1.0000
     1.0000   1.0000   1.0000   1.0000   1.0000   1.0000   1.0000   1.0000
     1.0000   1.0000   1.0000   1.0000   1.0000   1.0000   1.0000   1.0000
     1.0000   1.0000   1.0000   1.0000   1.0000   1.0000   1.0000   1.0000
     1.0000   1.0000   1.0000   1.0000   1.0000   1.0000   1.0000   1.0000
     1.0000   1.0000   1.0000   1.0000   1.0000   1.0000   1.0000   1.0000
     1.0000   1.0000   1.0000   1.0000   1.0000   1.0000   1.0000   1.0000
     1.0000   1.0000   1.0000   1.0000   1.0000   1.0000   1.0000   1.0000
     1.0000   1.0000   1.0000   1.0000   1.0000   1.0000   1.0000   1.0000
     1.0000   1.0000   1.0000   1.0000   1.0000   1.0000   1.0000   1.0000
     1.0000   1.0000   1.0000   1.0000   1.0000   1.0000   1.0000   1.0000
     1.0000   1.0000   1.0000   1.0000   1.0000   1.0000   1.0000   1.0000
     1.0000   1.0000   1.0000   1.0000   1.0000   1.0000   1.0000   1.0000
     1.0000   1.0000   1.0203   1.0267   0.6667  -0.0001  -0.0000  -0.0000
    -0.0000  -0.0000  -0.0000  -0.0000  -0.0000  -0.0000  -0.0000  -0.0000
    -0.0000  -0.0000  -0.0000  -0.0000  -0.0000  -0.0000  -0.0000  -0.0000
    -0.0000  -0.0000  -0.0000  -0.0000  -0.0000  -0.0000  -0.0000  -0.0000
    -0.0000  -0.0000  -0.0000  -0.0000  -0.0000  -0.0000  -0.0000  -0.0000
    -0.0000  -0.0000  -0.0000  -0.0000  -0.0000  -0.0000  -0.0000  -0.0000
    -0.0000  -0.0000  -0.0000  -0.0000  -0.0000  -0.0000  -0.0000  -0.0000
    -0.0000  -0.0000  -0.0000  -0.0000  -0.0000  -0.0000  -0.0000  -0.0000
    -0.0000  -0.0000  -0.0000  -0.0000  -0.0000  -0.0000  -0.0000  -0.0000
    -0.0000  -0.0000  -0.0000  -0.0000  -0.0000  -0.0000  -0.0000  -0.0000
    -0.0000  -0.0000  -0.0000  -0.0000  -0.0000  -0.0000  -0.0000  -0.0000
    -0.0000  -0.0000  -0.0000  -0.0000  -0.0000  -0.0000  -0.0000  -0.0000
    -0.0000  -0.0000  -0.0000  -0.0000  -0.0000  -0.0000  -0.0000  -0.0000
    -0.0000  -0.0000  -0.0000  -0.0000  -0.0000  -0.0000  -0.0000  -0.0000

          k =-0.2500-0.1443 0.2373 (554660 PWs)   bands (ev):

   -68.2859 -68.2855 -68.2851 -68.2849 -68.2847 -68.2846 -68.2846 -68.2846
   -68.2846 -68.2845 -68.2845 -68.2845 -68.2844 -68.2844 -68.2841 -68.2840
   -68.2838 -68.2835 -67.7455 -67.7452 -67.7450 -67.7447 -67.7445 -67.7445
   -67.7444 -67.7443 -67.7443 -67.7443 -67.7442 -67.7442 -67.7442 -67.7441
   -67.7441 -67.7440 -67.7440 -67.7440 -67.7439 -67.7438 -67.7438 -67.7438
   -67.7437 -67.7437 -67.7436 -67.7436 -67.7436 -67.7436 -67.7436 -67.7435
   -67.7435 -67.7434 -67.7434 -67.7433 -67.7433 -67.7428 -35.6969 -35.6966
   -35.6961 -35.6960 -35.6957 -35.6957 -35.6957 -35.6957 -35.6956 -35.6955
   -35.6955 -35.6955 -35.6955 -35.6954 -35.6952 -35.6950 -35.6949 -35.6946
   -35.6920 -35.6920 -35.6917 -35.6917 -35.6913 -35.6912 -35.6911 -35.6911
   -35.6908 -35.6908 -35.6908 -35.6908 -35.6908 -35.6908 -35.6907 -35.6907
   -35.6907 -35.6907 -35.6906 -35.6906 -35.6906 -35.6906 -35.6906 -35.6906
   -35.6906 -35.6905 -35.6905 -35.6905 -35.6903 -35.6903 -35.6902 -35.6901
   -35.6900 -35.6899 -35.6897 -35.6896 -35.1782 -35.1781 -35.1778 -35.1778
   -35.1777 -35.1777 -35.1776 -35.1776 -35.1774 -35.1774 -35.1773 -35.1773
   -35.1773 -35.1773 -35.1773 -35.1772 -35.1772 -35.1772 -35.1772 -35.1771
   -35.1771 -35.1771 -35.1771 -35.1771 -35.1770 -35.1770 -35.1770 -35.1770
   -35.1769 -35.1769 -35.1768 -35.1768 -35.1768 -35.1767 -35.1767 -35.1766
   -35.1764 -35.1763 -35.1762 -35.1762 -35.1759 -35.1758 -35.1756 -35.1756
   -35.1756 -35.1755 -35.1754 -35.1753 -35.1752 -35.1751 -35.1750 -35.1749
   -35.1741 -35.1739 -35.1712 -35.1710 -35.1709 -35.1709 -35.1708 -35.1707
   -35.1707 -35.1706 -35.1706 -35.1705 -35.1705 -35.1705 -35.1704 -35.1704
   -35.1704 -35.1704 -35.1703 -35.1702 -35.1702 -35.1701 -35.1699 -35.1696
   -35.1696 -35.1695 -35.1693 -35.1693 -35.1692 -35.1691 -35.1689 -35.1689
   -35.1689 -35.1687 -35.1687 -35.1687 -35.1686 -35.1685 -35.1684 -35.1684
   -35.1684 -35.1683 -35.1682 -35.1682 -35.1682 -35.1681 -35.1681 -35.1681
   -35.1681 -35.1681 -35.1680 -35.1680 -35.1680 -35.1680 -35.1680 -35.1676
   -14.2179 -14.2175 -14.2165 -14.2162 -14.2158 -14.2158 -14.2157 -14.2156
   -14.2154 -14.2149 -14.2149 -14.2146 -14.2145 -14.2142 -14.2136 -14.2136
   -14.2133 -14.2132 -14.2126 -14.2118 -14.2114 -14.2112 -14.2106 -14.2105
   -14.2105 -14.2104 -14.2101 -14.2100 -14.2099 -14.2099 -14.2098 -14.2097
   -14.2096 -14.2095 -14.2094 -14.2093 -14.2092 -14.2091 -14.2089 -14.2089
   -14.2088 -14.2087 -14.2087 -14.2086 -14.2085 -14.2084 -14.2084 -14.2083
   -14.2082 -14.2079 -14.2079 -14.2076 -14.2074 -14.2074 -14.2071 -14.2070
   -14.2064 -14.2061 -14.2058 -14.2056 -14.2053 -14.2053 -14.2050 -14.2049
   -14.2048 -14.2045 -14.2040 -14.2038 -14.2037 -14.2036 -14.2030 -14.2029
   -14.1901 -14.1885 -14.1882 -14.1879 -14.1876 -14.1874 -14.1873 -14.1872
   -14.1871 -14.1867 -14.1866 -14.1866 -14.1864 -14.1863 -14.1862 -14.1857
   -14.1854 -14.1851 -14.1848 -14.1846 -14.1845 -14.1844 -14.1842 -14.1841
   -14.1837 -14.1835 -14.1834 -14.1834 -14.1832 -14.1830 -14.1830 -14.1829
   -14.1827 -14.1825 -14.1822 -14.1806 -14.1749 -14.1748 -14.1738 -14.1738
   -14.1731 -14.1730 -14.1724 -14.1723 -14.1721 -14.1720 -14.1718 -14.1716
   -14.1715 -14.1714 -14.1713 -14.1712 -14.1710 -14.1709 -14.1707 -14.1706
   -14.1704 -14.1703 -14.1701 -14.1701 -14.1699 -14.1693 -14.1692 -14.1691
   -14.1685 -14.1681 -14.1679 -14.1677 -14.1657 -14.1656 -14.1652 -14.1649
   -14.1648 -14.1645 -14.1643 -14.1641 -14.1639 -14.1639 -14.1635 -14.1634
   -14.1632 -14.1631 -14.1629 -14.1626 -14.1623 -14.1620 -14.1618 -14.1614
   -14.1601 -14.1600 -14.1595 -14.1593 -14.1591 -14.1589 -14.1585 -14.1583
   -14.1582 -14.1579 -14.1578 -14.1577 -14.1575 -14.1574 -14.1572 -14.1572
   -14.1570 -14.1566 -14.1562 -14.1558  -3.6617  -3.4845  -3.3710  -3.2461
    -3.2456  -3.2190  -3.1043  -3.1038  -3.0378  -3.0373  -3.0201  -2.9681
    -2.9302  -2.9297  -2.8661  -2.8353  -2.7706  -2.7701  -2.7609  -2.7594
    -2.7588  -2.7091  -2.7085  -2.6785  -2.6779  -2.6661  -2.6339  -2.6211
    -2.6205  -2.5923  -2.5918  -2.5838  -2.5832  -2.5607  -2.5603  -2.5600
     3.1494   3.1557   3.2537   3.2685   3.2686   3.4533   3.4533   3.5202
     3.5205   3.5435   3.5439   3.5745   3.5915   3.6305   3.6309   3.6505
     3.6507   3.7847   3.7849   3.7886   3.8081   3.8084   3.9839   4.0374
     4.0375   4.0933   4.0935   4.1151   4.1153   4.1357   4.2626   4.2628
     4.3850   4.3853   4.4315   4.4317   4.5320   4.5379   4.5549   4.5553
     4.6993   4.8421   4.8426   5.0935   5.0937   5.2285   5.2778   5.2783
     5.3473   5.4670   5.4673   5.5056   5.5060   5.5705   5.6158   5.6278
     5.6279   5.6542   5.6544   5.8028   5.9174   5.9177   6.0279   6.0284
     6.0321   6.0324   6.0422   6.0424   6.0612   6.2154   6.2888   6.2960
     6.2963   6.4324   6.4986   6.4993   6.5070   6.5836   6.5839   6.6315
     6.6320   6.6833   6.7245   6.7556   6.7755   6.8075   6.8900   6.9382
     6.9384   7.0006   7.0010   7.0120   7.0124   7.0230   7.0247   7.0252
     7.0289   7.0296   7.0535   7.1604   7.2054   7.2135   7.2139   7.3858
     7.5175   7.5385   7.7088   7.8287   8.2954   8.3482   8.3483   8.5296
     8.5904   8.6256   8.6259   8.8849   8.8850   8.9412   8.9413   9.0232
     9.1016   9.1885   9.3144   9.3147   9.3384   9.4414   9.5041   9.5044
     9.5279   9.6963   9.6966   9.7368   9.7590   9.7594   9.7721   9.8476
     9.8481   9.8752   9.8754   9.8904   9.9547   9.9552   9.9658  10.2656
    10.2660  10.3613  10.3613  10.3682  10.3684  10.4601  10.4866  10.4868
    10.6304  10.6308  10.6682  10.6738  10.7929  10.9046  10.9208  10.9770
    10.9771  10.9788  10.9791  11.0167  11.0169  11.0815  11.0977  11.2381
    11.2529  11.2532  11.3364  11.3365  11.3420  11.3510  11.3762  11.4733
    11.4735  11.6617  11.6621  11.7037  11.7162  11.7166  11.7620  11.7622
    11.9342  11.9689  11.9758  12.0156  12.0192  12.0193  12.0347  12.0348
    12.0410  12.0485  12.1365  12.1368  12.1389  12.1390  12.2111  12.2114
    12.2462  12.2592  12.3242  12.4805  12.5505  12.5511  12.5777  12.5780
    12.5908  12.5909  12.6879  12.7144  12.7625  12.7761  12.8493  12.8497

     occupation numbers 
     1.0000   1.0000   1.0000   1.0000   1.0000   1.0000   1.0000   1.0000
     1.0000   1.0000   1.0000   1.0000   1.0000   1.0000   1.0000   1.0000
     1.0000   1.0000   1.0000   1.0000   1.0000   1.0000   1.0000   1.0000
     1.0000   1.0000   1.0000   1.0000   1.0000   1.0000   1.0000   1.0000
     1.0000   1.0000   1.0000   1.0000   1.0000   1.0000   1.0000   1.0000
     1.0000   1.0000   1.0000   1.0000   1.0000   1.0000   1.0000   1.0000
     1.0000   1.0000   1.0000   1.0000   1.0000   1.0000   1.0000   1.0000
     1.0000   1.0000   1.0000   1.0000   1.0000   1.0000   1.0000   1.0000
     1.0000   1.0000   1.0000   1.0000   1.0000   1.0000   1.0000   1.0000
     1.0000   1.0000   1.0000   1.0000   1.0000   1.0000   1.0000   1.0000
     1.0000   1.0000   1.0000   1.0000   1.0000   1.0000   1.0000   1.0000
     1.0000   1.0000   1.0000   1.0000   1.0000   1.0000   1.0000   1.0000
     1.0000   1.0000   1.0000   1.0000   1.0000   1.0000   1.0000   1.0000
     1.0000   1.0000   1.0000   1.0000   1.0000   1.0000   1.0000   1.0000
     1.0000   1.0000   1.0000   1.0000   1.0000   1.0000   1.0000   1.0000
     1.0000   1.0000   1.0000   1.0000   1.0000   1.0000   1.0000   1.0000
     1.0000   1.0000   1.0000   1.0000   1.0000   1.0000   1.0000   1.0000
     1.0000   1.0000   1.0000   1.0000   1.0000   1.0000   1.0000   1.0000
     1.0000   1.0000   1.0000   1.0000   1.0000   1.0000   1.0000   1.0000
     1.0000   1.0000   1.0000   1.0000   1.0000   1.0000   1.0000   1.0000
     1.0000   1.0000   1.0000   1.0000   1.0000   1.0000   1.0000   1.0000
     1.0000   1.0000   1.0000   1.0000   1.0000   1.0000   1.0000   1.0000
     1.0000   1.0000   1.0000   1.0000   1.0000   1.0000   1.0000   1.0000
     1.0000   1.0000   1.0000   1.0000   1.0000   1.0000   1.0000   1.0000
     1.0000   1.0000   1.0000   1.0000   1.0000   1.0000   1.0000   1.0000
     1.0000   1.0000   1.0000   1.0000   1.0000   1.0000   1.0000   1.0000
     1.0000   1.0000   1.0000   1.0000   1.0000   1.0000   1.0000   1.0000
     1.0000   1.0000   1.0000   1.0000   1.0000   1.0000   1.0000   1.0000
     1.0000   1.0000   1.0000   1.0000   1.0000   1.0000   1.0000   1.0000
     1.0000   1.0000   1.0000   1.0000   1.0000   1.0000   1.0000   1.0000
     1.0000   1.0000   1.0000   1.0000   1.0000   1.0000   1.0000   1.0000
     1.0000   1.0000   1.0000   1.0000   1.0000   1.0000   1.0000   1.0000
     1.0000   1.0000   1.0000   1.0000   1.0000   1.0000   1.0000   1.0000
     1.0000   1.0000   1.0000   1.0000   1.0000   1.0000   1.0000   1.0000
     1.0000   1.0000   1.0000   1.0000   1.0000   1.0000   1.0000   1.0000
     1.0000   1.0000   1.0000   1.0000   1.0000   1.0000   1.0000   1.0000
     1.0000   1.0000   1.0000   1.0000   1.0000   1.0000   1.0000   1.0000
     1.0000   1.0000   1.0000   1.0000   1.0000   1.0000   1.0000   1.0000
     1.0000   1.0000   1.0000   1.0000   1.0000   1.0000   1.0000   1.0000
     1.0000   1.0000   1.0000   1.0000   1.0000   1.0000   1.0000   1.0000
     1.0000   1.0000   1.0000   1.0000   1.0000   1.0000   1.0000   1.0000
     1.0000   1.0000   1.0000   1.0000   1.0000   1.0000   1.0000   1.0000
     1.0000   1.0000   1.0000   1.0000   1.0000   1.0000   1.0000   1.0000
     1.0000   1.0000   1.0000   1.0000   1.0000   1.0000   1.0000   1.0000
     1.0000   1.0000   1.0000   1.0000   1.0000   1.0000   1.0000   1.0000
     1.0000   1.0000   1.0000   1.0000   1.0000   1.0000   1.0000   1.0000
     1.0000   1.0000   1.0000   1.0000   1.0000   1.0000   1.0000   1.0000
     1.0000   1.0000   1.0000   1.0000   1.0000   1.0000   1.0000   1.0000
     1.0000   1.0000   1.0000   1.0000   1.0000   1.0000   1.0000   1.0000
     1.0000   1.0000   1.0000   1.0000   1.0000   1.0000   1.0000   1.0000
     1.0000   1.0000   1.0000   1.0000   1.0000   1.0000   1.0000   1.0000
     1.0000   1.0000   1.0000   1.0000   1.0000   1.0000   1.0000   1.0000
     1.0000   1.0000   1.0000   1.0000   1.0000   1.0000   1.0000   1.0000
     1.0000   1.0000   1.0000   1.0000   1.0000   1.0000   1.0000   1.0000
     1.0000   1.0000   1.0000   1.0000   1.0000   1.0000   1.0000   1.0000
     1.0000   1.0000   1.0000   1.0000   1.0000   1.0000   1.0000   1.0000
     1.0000   1.0000   1.0000   1.0000   1.0000   1.0000   1.0000   1.0000
     1.0000   1.0000   1.0000   1.0000   1.0000   1.0000   1.0000   1.0000
     1.0000   1.0000   1.0000   1.0000   1.0000   1.0000   1.0000   1.0000
     1.0000   1.0000   1.0000   1.0000   1.0000   1.0000   1.0000   1.0000
     1.0000   1.0000   1.0000   1.0000   1.0000   1.0000   1.0000   1.0000
     1.0000   1.0000   1.0000   1.0000   1.0000   1.0000   1.0000   1.0000
     1.0000   1.0000   1.0000   1.0000   1.0000   1.0000   1.0000   1.0000
     1.0000   1.0000   1.0000   1.0000   1.0000   1.0000   1.0000   1.0000
     1.0000   1.0000   1.0000   1.0000   1.0000   1.0000   1.0000   1.0000
     1.0000   1.0000   1.0000   1.0000   1.0000   1.0000   1.0000   1.0000
     1.0000   1.0000   1.0000   1.0000   1.0000   1.0000   1.0000   1.0000
     1.0000   1.0000   1.0086   1.0325  -0.0024  -0.0004  -0.0004  -0.0000
    -0.0000  -0.0000  -0.0000  -0.0000  -0.0000  -0.0000  -0.0000  -0.0000
    -0.0000  -0.0000  -0.0000  -0.0000  -0.0000  -0.0000  -0.0000  -0.0000
    -0.0000  -0.0000  -0.0000  -0.0000  -0.0000  -0.0000  -0.0000  -0.0000
    -0.0000  -0.0000  -0.0000  -0.0000  -0.0000  -0.0000  -0.0000  -0.0000
    -0.0000  -0.0000  -0.0000  -0.0000  -0.0000  -0.0000  -0.0000  -0.0000
    -0.0000  -0.0000  -0.0000  -0.0000  -0.0000  -0.0000  -0.0000  -0.0000
    -0.0000  -0.0000  -0.0000  -0.0000  -0.0000  -0.0000  -0.0000  -0.0000
    -0.0000  -0.0000  -0.0000  -0.0000  -0.0000  -0.0000  -0.0000  -0.0000
    -0.0000  -0.0000  -0.0000  -0.0000  -0.0000  -0.0000  -0.0000  -0.0000
    -0.0000  -0.0000  -0.0000  -0.0000  -0.0000  -0.0000  -0.0000  -0.0000
    -0.0000  -0.0000  -0.0000  -0.0000  -0.0000  -0.0000  -0.0000  -0.0000
    -0.0000  -0.0000  -0.0000  -0.0000  -0.0000  -0.0000  -0.0000  -0.0000
    -0.0000  -0.0000  -0.0000  -0.0000  -0.0000  -0.0000  -0.0000  -0.0000

          k = 0.2500-0.1443 0.2373 (554660 PWs)   bands (ev):

   -68.2859 -68.2855 -68.2851 -68.2849 -68.2847 -68.2846 -68.2846 -68.2846
   -68.2846 -68.2845 -68.2845 -68.2845 -68.2844 -68.2844 -68.2841 -68.2840
   -68.2838 -68.2835 -67.7455 -67.7452 -67.7450 -67.7447 -67.7445 -67.7445
   -67.7444 -67.7443 -67.7443 -67.7443 -67.7443 -67.7442 -67.7442 -67.7442
   -67.7441 -67.7440 -67.7440 -67.7440 -67.7439 -67.7438 -67.7438 -67.7438
   -67.7437 -67.7437 -67.7437 -67.7437 -67.7436 -67.7436 -67.7435 -67.7435
   -67.7435 -67.7434 -67.7434 -67.7433 -67.7433 -67.7428 -35.6969 -35.6966
   -35.6961 -35.6960 -35.6957 -35.6957 -35.6957 -35.6957 -35.6956 -35.6955
   -35.6955 -35.6955 -35.6955 -35.6954 -35.6952 -35.6950 -35.6949 -35.6946
   -35.6920 -35.6920 -35.6917 -35.6917 -35.6913 -35.6912 -35.6911 -35.6911
   -35.6908 -35.6908 -35.6908 -35.6908 -35.6908 -35.6908 -35.6907 -35.6907
   -35.6907 -35.6907 -35.6906 -35.6906 -35.6906 -35.6906 -35.6906 -35.6906
   -35.6906 -35.6905 -35.6905 -35.6905 -35.6903 -35.6903 -35.6902 -35.6901
   -35.6900 -35.6899 -35.6897 -35.6896 -35.1782 -35.1781 -35.1778 -35.1778
   -35.1777 -35.1777 -35.1776 -35.1776 -35.1774 -35.1774 -35.1773 -35.1773
   -35.1773 -35.1773 -35.1773 -35.1772 -35.1772 -35.1772 -35.1772 -35.1771
   -35.1771 -35.1771 -35.1771 -35.1771 -35.1770 -35.1770 -35.1770 -35.1770
   -35.1769 -35.1769 -35.1768 -35.1768 -35.1768 -35.1767 -35.1767 -35.1766
   -35.1764 -35.1763 -35.1762 -35.1762 -35.1759 -35.1758 -35.1757 -35.1756
   -35.1755 -35.1755 -35.1754 -35.1753 -35.1752 -35.1752 -35.1750 -35.1749
   -35.1741 -35.1739 -35.1712 -35.1710 -35.1709 -35.1709 -35.1708 -35.1707
   -35.1707 -35.1706 -35.1706 -35.1705 -35.1705 -35.1705 -35.1705 -35.1704
   -35.1704 -35.1704 -35.1703 -35.1702 -35.1702 -35.1701 -35.1699 -35.1696
   -35.1696 -35.1695 -35.1693 -35.1693 -35.1692 -35.1691 -35.1689 -35.1689
   -35.1689 -35.1688 -35.1687 -35.1687 -35.1686 -35.1684 -35.1684 -35.1684
   -35.1684 -35.1683 -35.1682 -35.1682 -35.1682 -35.1681 -35.1681 -35.1681
   -35.1681 -35.1681 -35.1680 -35.1680 -35.1680 -35.1680 -35.1680 -35.1676
   -14.2180 -14.2172 -14.2167 -14.2161 -14.2158 -14.2157 -14.2157 -14.2156
   -14.2154 -14.2150 -14.2148 -14.2146 -14.2144 -14.2143 -14.2137 -14.2136
   -14.2135 -14.2130 -14.2127 -14.2116 -14.2116 -14.2112 -14.2106 -14.2105
   -14.2104 -14.2103 -14.2101 -14.2100 -14.2099 -14.2099 -14.2098 -14.2097
   -14.2096 -14.2095 -14.2094 -14.2093 -14.2092 -14.2091 -14.2090 -14.2089
   -14.2088 -14.2087 -14.2087 -14.2086 -14.2085 -14.2084 -14.2084 -14.2083
   -14.2080 -14.2080 -14.2078 -14.2077 -14.2075 -14.2073 -14.2070 -14.2070
   -14.2065 -14.2060 -14.2058 -14.2055 -14.2054 -14.2053 -14.2051 -14.2050
   -14.2047 -14.2045 -14.2040 -14.2038 -14.2037 -14.2035 -14.2031 -14.2028
   -14.1901 -14.1886 -14.1883 -14.1878 -14.1876 -14.1875 -14.1873 -14.1871
   -14.1871 -14.1867 -14.1867 -14.1865 -14.1865 -14.1863 -14.1861 -14.1857
   -14.1854 -14.1851 -14.1848 -14.1845 -14.1844 -14.1843 -14.1842 -14.1841
   -14.1838 -14.1837 -14.1835 -14.1833 -14.1832 -14.1830 -14.1829 -14.1829
   -14.1828 -14.1824 -14.1822 -14.1806 -14.1749 -14.1748 -14.1738 -14.1738
   -14.1732 -14.1730 -14.1724 -14.1722 -14.1721 -14.1719 -14.1718 -14.1715
   -14.1714 -14.1714 -14.1713 -14.1712 -14.1711 -14.1709 -14.1708 -14.1706
   -14.1704 -14.1703 -14.1702 -14.1701 -14.1699 -14.1693 -14.1692 -14.1691
   -14.1685 -14.1681 -14.1680 -14.1676 -14.1658 -14.1656 -14.1652 -14.1649
   -14.1647 -14.1644 -14.1642 -14.1641 -14.1640 -14.1638 -14.1635 -14.1634
   -14.1632 -14.1631 -14.1629 -14.1628 -14.1622 -14.1620 -14.1618 -14.1614
   -14.1603 -14.1598 -14.1595 -14.1592 -14.1591 -14.1590 -14.1585 -14.1583
   -14.1582 -14.1579 -14.1578 -14.1577 -14.1576 -14.1574 -14.1572 -14.1571
   -14.1569 -14.1566 -14.1562 -14.1559  -3.6617  -3.4845  -3.3710  -3.2460
    -3.2458  -3.2190  -3.1041  -3.1039  -3.0376  -3.0374  -3.0201  -2.9680
    -2.9300  -2.9298  -2.8661  -2.8353  -2.7705  -2.7703  -2.7609  -2.7592
    -2.7590  -2.7089  -2.7087  -2.6783  -2.6781  -2.6660  -2.6340  -2.6209
    -2.6207  -2.5921  -2.5920  -2.5836  -2.5834  -2.5606  -2.5604  -2.5600
     3.1494   3.1556   3.2536   3.2685   3.2686   3.4532   3.4533   3.5203
     3.5204   3.5437   3.5438   3.5742   3.5914   3.6306   3.6307   3.6505
     3.6508   3.7848   3.7850   3.7887   3.8083   3.8085   3.9838   4.0375
     4.0377   4.0931   4.0934   4.1152   4.1154   4.1354   4.2627   4.2628
     4.3852   4.3855   4.4316   4.4318   4.5317   4.5378   4.5550   4.5551
     4.6993   4.8425   4.8427   5.0935   5.0937   5.2283   5.2780   5.2783
     5.3474   5.4671   5.4672   5.5056   5.5057   5.5702   5.6159   5.6277
     5.6280   5.6542   5.6544   5.8030   5.9173   5.9175   6.0281   6.0282
     6.0321   6.0324   6.0423   6.0424   6.0613   6.2156   6.2885   6.2962
     6.2964   6.4321   6.4987   6.4989   6.5072   6.5836   6.5837   6.6317
     6.6318   6.6831   6.7247   6.7556   6.7755   6.8073   6.8903   6.9381
     6.9384   7.0007   7.0008   7.0122   7.0124   7.0233   7.0248   7.0249
     7.0288   7.0290   7.0538   7.1600   7.2056   7.2137   7.2139   7.3857
     7.5178   7.5388   7.7091   7.8287   8.2956   8.3482   8.3484   8.5295
     8.5904   8.6256   8.6259   8.8848   8.8849   8.9412   8.9413   9.0232
     9.1016   9.1886   9.3144   9.3147   9.3387   9.4413   9.5042   9.5044
     9.5279   9.6963   9.6965   9.7369   9.7589   9.7593   9.7719   9.8476
     9.8478   9.8752   9.8754   9.8905   9.9548   9.9550   9.9661  10.2658
    10.2661  10.3612  10.3614  10.3682  10.3684  10.4601  10.4864  10.4868
    10.6304  10.6306  10.6683  10.6737  10.7931  10.9048  10.9208  10.9770
    10.9771  10.9787  10.9788  11.0168  11.0171  11.0816  11.0979  11.2383
    11.2529  11.2530  11.3361  11.3364  11.3418  11.3512  11.3763  11.4732
    11.4734  11.6617  11.6619  11.7038  11.7162  11.7166  11.7619  11.7621
    11.9344  11.9687  11.9760  12.0151  12.0192  12.0194  12.0345  12.0349
    12.0408  12.0487  12.1367  12.1369  12.1390  12.1391  12.2109  12.2111
    12.2464  12.2592  12.3243  12.4806  12.5507  12.5508  12.5776  12.5779
    12.5909  12.5910  12.6880  12.7146  12.7623  12.7759  12.8496  12.8844

     occupation numbers 
     1.0000   1.0000   1.0000   1.0000   1.0000   1.0000   1.0000   1.0000
     1.0000   1.0000   1.0000   1.0000   1.0000   1.0000   1.0000   1.0000
     1.0000   1.0000   1.0000   1.0000   1.0000   1.0000   1.0000   1.0000
     1.0000   1.0000   1.0000   1.0000   1.0000   1.0000   1.0000   1.0000
     1.0000   1.0000   1.0000   1.0000   1.0000   1.0000   1.0000   1.0000
     1.0000   1.0000   1.0000   1.0000   1.0000   1.0000   1.0000   1.0000
     1.0000   1.0000   1.0000   1.0000   1.0000   1.0000   1.0000   1.0000
     1.0000   1.0000   1.0000   1.0000   1.0000   1.0000   1.0000   1.0000
     1.0000   1.0000   1.0000   1.0000   1.0000   1.0000   1.0000   1.0000
     1.0000   1.0000   1.0000   1.0000   1.0000   1.0000   1.0000   1.0000
     1.0000   1.0000   1.0000   1.0000   1.0000   1.0000   1.0000   1.0000
     1.0000   1.0000   1.0000   1.0000   1.0000   1.0000   1.0000   1.0000
     1.0000   1.0000   1.0000   1.0000   1.0000   1.0000   1.0000   1.0000
     1.0000   1.0000   1.0000   1.0000   1.0000   1.0000   1.0000   1.0000
     1.0000   1.0000   1.0000   1.0000   1.0000   1.0000   1.0000   1.0000
     1.0000   1.0000   1.0000   1.0000   1.0000   1.0000   1.0000   1.0000
     1.0000   1.0000   1.0000   1.0000   1.0000   1.0000   1.0000   1.0000
     1.0000   1.0000   1.0000   1.0000   1.0000   1.0000   1.0000   1.0000
     1.0000   1.0000   1.0000   1.0000   1.0000   1.0000   1.0000   1.0000
     1.0000   1.0000   1.0000   1.0000   1.0000   1.0000   1.0000   1.0000
     1.0000   1.0000   1.0000   1.0000   1.0000   1.0000   1.0000   1.0000
     1.0000   1.0000   1.0000   1.0000   1.0000   1.0000   1.0000   1.0000
     1.0000   1.0000   1.0000   1.0000   1.0000   1.0000   1.0000   1.0000
     1.0000   1.0000   1.0000   1.0000   1.0000   1.0000   1.0000   1.0000
     1.0000   1.0000   1.0000   1.0000   1.0000   1.0000   1.0000   1.0000
     1.0000   1.0000   1.0000   1.0000   1.0000   1.0000   1.0000   1.0000
     1.0000   1.0000   1.0000   1.0000   1.0000   1.0000   1.0000   1.0000
     1.0000   1.0000   1.0000   1.0000   1.0000   1.0000   1.0000   1.0000
     1.0000   1.0000   1.0000   1.0000   1.0000   1.0000   1.0000   1.0000
     1.0000   1.0000   1.0000   1.0000   1.0000   1.0000   1.0000   1.0000
     1.0000   1.0000   1.0000   1.0000   1.0000   1.0000   1.0000   1.0000
     1.0000   1.0000   1.0000   1.0000   1.0000   1.0000   1.0000   1.0000
     1.0000   1.0000   1.0000   1.0000   1.0000   1.0000   1.0000   1.0000
     1.0000   1.0000   1.0000   1.0000   1.0000   1.0000   1.0000   1.0000
     1.0000   1.0000   1.0000   1.0000   1.0000   1.0000   1.0000   1.0000
     1.0000   1.0000   1.0000   1.0000   1.0000   1.0000   1.0000   1.0000
     1.0000   1.0000   1.0000   1.0000   1.0000   1.0000   1.0000   1.0000
     1.0000   1.0000   1.0000   1.0000   1.0000   1.0000   1.0000   1.0000
     1.0000   1.0000   1.0000   1.0000   1.0000   1.0000   1.0000   1.0000
     1.0000   1.0000   1.0000   1.0000   1.0000   1.0000   1.0000   1.0000
     1.0000   1.0000   1.0000   1.0000   1.0000   1.0000   1.0000   1.0000
     1.0000   1.0000   1.0000   1.0000   1.0000   1.0000   1.0000   1.0000
     1.0000   1.0000   1.0000   1.0000   1.0000   1.0000   1.0000   1.0000
     1.0000   1.0000   1.0000   1.0000   1.0000   1.0000   1.0000   1.0000
     1.0000   1.0000   1.0000   1.0000   1.0000   1.0000   1.0000   1.0000
     1.0000   1.0000   1.0000   1.0000   1.0000   1.0000   1.0000   1.0000
     1.0000   1.0000   1.0000   1.0000   1.0000   1.0000   1.0000   1.0000
     1.0000   1.0000   1.0000   1.0000   1.0000   1.0000   1.0000   1.0000
     1.0000   1.0000   1.0000   1.0000   1.0000   1.0000   1.0000   1.0000
     1.0000   1.0000   1.0000   1.0000   1.0000   1.0000   1.0000   1.0000
     1.0000   1.0000   1.0000   1.0000   1.0000   1.0000   1.0000   1.0000
     1.0000   1.0000   1.0000   1.0000   1.0000   1.0000   1.0000   1.0000
     1.0000   1.0000   1.0000   1.0000   1.0000   1.0000   1.0000   1.0000
     1.0000   1.0000   1.0000   1.0000   1.0000   1.0000   1.0000   1.0000
     1.0000   1.0000   1.0000   1.0000   1.0000   1.0000   1.0000   1.0000
     1.0000   1.0000   1.0000   1.0000   1.0000   1.0000   1.0000   1.0000
     1.0000   1.0000   1.0000   1.0000   1.0000   1.0000   1.0000   1.0000
     1.0000   1.0000   1.0000   1.0000   1.0000   1.0000   1.0000   1.0000
     1.0000   1.0000   1.0000   1.0000   1.0000   1.0000   1.0000   1.0000
     1.0000   1.0000   1.0000   1.0000   1.0000   1.0000   1.0000   1.0000
     1.0000   1.0000   1.0000   1.0000   1.0000   1.0000   1.0000   1.0000
     1.0000   1.0000   1.0000   1.0000   1.0000   1.0000   1.0000   1.0000
     1.0000   1.0000   1.0000   1.0000   1.0000   1.0000   1.0000   1.0000
     1.0000   1.0000   1.0000   1.0000   1.0000   1.0000   1.0000   1.0000
     1.0000   1.0000   1.0000   1.0000   1.0000   1.0000   1.0000   1.0000
     1.0000   1.0000   1.0000   1.0000   1.0000   1.0000   1.0000   1.0000
     1.0000   1.0000   1.0000   1.0000   1.0000   1.0000   1.0000   1.0000
     1.0000   1.0000   1.0086   1.0325  -0.0024  -0.0004  -0.0004  -0.0000
    -0.0000  -0.0000  -0.0000  -0.0000  -0.0000  -0.0000  -0.0000  -0.0000
    -0.0000  -0.0000  -0.0000  -0.0000  -0.0000  -0.0000  -0.0000  -0.0000
    -0.0000  -0.0000  -0.0000  -0.0000  -0.0000  -0.0000  -0.0000  -0.0000
    -0.0000  -0.0000  -0.0000  -0.0000  -0.0000  -0.0000  -0.0000  -0.0000
    -0.0000  -0.0000  -0.0000  -0.0000  -0.0000  -0.0000  -0.0000  -0.0000
    -0.0000  -0.0000  -0.0000  -0.0000  -0.0000  -0.0000  -0.0000  -0.0000
    -0.0000  -0.0000  -0.0000  -0.0000  -0.0000  -0.0000  -0.0000  -0.0000
    -0.0000  -0.0000  -0.0000  -0.0000  -0.0000  -0.0000  -0.0000  -0.0000
    -0.0000  -0.0000  -0.0000  -0.0000  -0.0000  -0.0000  -0.0000  -0.0000
    -0.0000  -0.0000  -0.0000  -0.0000  -0.0000  -0.0000  -0.0000  -0.0000
    -0.0000  -0.0000  -0.0000  -0.0000  -0.0000  -0.0000  -0.0000  -0.0000
    -0.0000  -0.0000  -0.0000  -0.0000  -0.0000  -0.0000  -0.0000  -0.0000
    -0.0000  -0.0000  -0.0000  -0.0000  -0.0000  -0.0000  -0.0000  -0.0000

          k =-0.2500 0.1443-0.4746 (554696 PWs)   bands (ev):

   -68.2859 -68.2855 -68.2851 -68.2849 -68.2847 -68.2846 -68.2846 -68.2846
   -68.2846 -68.2845 -68.2845 -68.2845 -68.2844 -68.2844 -68.2841 -68.2840
   -68.2838 -68.2835 -67.7455 -67.7452 -67.7450 -67.7447 -67.7445 -67.7445
   -67.7444 -67.7443 -67.7443 -67.7443 -67.7443 -67.7442 -67.7442 -67.7442
   -67.7441 -67.7440 -67.7440 -67.7440 -67.7439 -67.7438 -67.7438 -67.7438
   -67.7437 -67.7437 -67.7437 -67.7437 -67.7436 -67.7436 -67.7435 -67.7435
   -67.7435 -67.7434 -67.7434 -67.7433 -67.7433 -67.7428 -35.6969 -35.6966
   -35.6961 -35.6960 -35.6957 -35.6957 -35.6957 -35.6957 -35.6956 -35.6955
   -35.6955 -35.6955 -35.6955 -35.6954 -35.6952 -35.6950 -35.6949 -35.6946
   -35.6920 -35.6920 -35.6917 -35.6917 -35.6913 -35.6912 -35.6911 -35.6911
   -35.6908 -35.6908 -35.6908 -35.6908 -35.6908 -35.6908 -35.6907 -35.6907
   -35.6907 -35.6907 -35.6906 -35.6906 -35.6906 -35.6906 -35.6906 -35.6906
   -35.6906 -35.6905 -35.6905 -35.6905 -35.6903 -35.6903 -35.6902 -35.6901
   -35.6900 -35.6899 -35.6897 -35.6896 -35.1782 -35.1781 -35.1778 -35.1778
   -35.1777 -35.1777 -35.1776 -35.1776 -35.1774 -35.1774 -35.1773 -35.1773
   -35.1773 -35.1773 -35.1773 -35.1772 -35.1772 -35.1772 -35.1772 -35.1771
   -35.1771 -35.1771 -35.1771 -35.1771 -35.1770 -35.1770 -35.1770 -35.1770
   -35.1769 -35.1769 -35.1768 -35.1768 -35.1768 -35.1767 -35.1767 -35.1766
   -35.1764 -35.1763 -35.1762 -35.1762 -35.1759 -35.1758 -35.1757 -35.1756
   -35.1755 -35.1755 -35.1754 -35.1753 -35.1752 -35.1752 -35.1750 -35.1749
   -35.1741 -35.1739 -35.1712 -35.1710 -35.1709 -35.1709 -35.1708 -35.1707
   -35.1707 -35.1706 -35.1706 -35.1705 -35.1705 -35.1705 -35.1705 -35.1704
   -35.1704 -35.1704 -35.1703 -35.1702 -35.1702 -35.1701 -35.1699 -35.1696
   -35.1696 -35.1695 -35.1693 -35.1693 -35.1692 -35.1691 -35.1689 -35.1689
   -35.1689 -35.1688 -35.1687 -35.1687 -35.1686 -35.1684 -35.1684 -35.1684
   -35.1684 -35.1683 -35.1682 -35.1682 -35.1682 -35.1681 -35.1681 -35.1681
   -35.1681 -35.1681 -35.1680 -35.1680 -35.1680 -35.1680 -35.1680 -35.1676
   -14.2180 -14.2173 -14.2167 -14.2163 -14.2159 -14.2158 -14.2156 -14.2155
   -14.2154 -14.2148 -14.2146 -14.2145 -14.2143 -14.2141 -14.2139 -14.2138
   -14.2135 -14.2128 -14.2126 -14.2119 -14.2116 -14.2113 -14.2108 -14.2107
   -14.2104 -14.2103 -14.2101 -14.2100 -14.2098 -14.2097 -14.2097 -14.2096
   -14.2095 -14.2094 -14.2093 -14.2092 -14.2092 -14.2090 -14.2090 -14.2089
   -14.2088 -14.2087 -14.2087 -14.2086 -14.2085 -14.2085 -14.2083 -14.2082
   -14.2082 -14.2079 -14.2078 -14.2077 -14.2076 -14.2074 -14.2072 -14.2071
   -14.2068 -14.2064 -14.2062 -14.2053 -14.2051 -14.2050 -14.2048 -14.2047
   -14.2045 -14.2043 -14.2041 -14.2040 -14.2039 -14.2036 -14.2032 -14.2028
   -14.1901 -14.1884 -14.1884 -14.1877 -14.1874 -14.1873 -14.1873 -14.1871
   -14.1869 -14.1869 -14.1868 -14.1868 -14.1866 -14.1864 -14.1862 -14.1858
   -14.1854 -14.1850 -14.1847 -14.1846 -14.1844 -14.1843 -14.1842 -14.1841
   -14.1838 -14.1837 -14.1836 -14.1833 -14.1832 -14.1830 -14.1829 -14.1828
   -14.1828 -14.1824 -14.1823 -14.1806 -14.1749 -14.1748 -14.1738 -14.1738
   -14.1732 -14.1730 -14.1723 -14.1721 -14.1720 -14.1718 -14.1717 -14.1717
   -14.1716 -14.1715 -14.1714 -14.1712 -14.1711 -14.1709 -14.1708 -14.1706
   -14.1705 -14.1703 -14.1701 -14.1700 -14.1699 -14.1693 -14.1693 -14.1690
   -14.1686 -14.1680 -14.1680 -14.1673 -14.1659 -14.1655 -14.1652 -14.1648
   -14.1647 -14.1645 -14.1643 -14.1641 -14.1640 -14.1639 -14.1635 -14.1634
   -14.1632 -14.1630 -14.1630 -14.1628 -14.1623 -14.1620 -14.1618 -14.1613
   -14.1603 -14.1598 -14.1595 -14.1591 -14.1590 -14.1588 -14.1583 -14.1583
   -14.1582 -14.1581 -14.1580 -14.1576 -14.1575 -14.1574 -14.1573 -14.1572
   -14.1568 -14.1568 -14.1562 -14.1560  -3.5890  -3.5881  -3.3088  -3.3068
    -3.1886  -3.1882  -3.1860  -3.1859  -2.9945  -2.9942  -2.9903  -2.9901
    -2.9282  -2.9233  -2.8763  -2.8754  -2.7386  -2.7381  -2.7371  -2.7368
    -2.7235  -2.7205  -2.6711  -2.6707  -2.6674  -2.6673  -2.6137  -2.6134
    -2.6081  -2.6079  -2.6074  -2.6013  -2.5993  -2.5989  -2.5979  -2.5975
     3.1334   3.2197   3.3051   3.3053   3.4355   3.4356   3.4779   3.4781
     3.4783   3.4808   3.5069   3.5070   3.5828   3.5829   3.6191   3.7341
     3.7374   3.7377   3.8052   3.8273   3.8276   3.8689   3.8691   3.8825
     3.8978   3.8980   4.0319   4.0321   4.2031   4.2033   4.2638   4.2639
     4.2722   4.2725   4.4162   4.4164   4.5304   4.7537   4.9562   4.9563
     5.0415   5.0417   5.0439   5.0611   5.0612   5.0688   5.0690   5.1553
     5.1956   5.2379   5.3658   5.3661   5.3670   5.3671   5.7037   5.7039
     5.7312   5.7315   5.8665   5.8667   5.8670   5.8672   5.9016   5.9126
     5.9370   5.9371   5.9443   5.9444   6.0321   6.0763   6.3089   6.3461
     6.5411   6.5413   6.5463   6.5465   6.5538   6.5831   6.5833   6.6136
     6.6137   6.6532   6.6655   6.7218   6.8007   6.8009   6.8431   6.8433
     6.9334   6.9715   6.9897   6.9898   6.9900   6.9959   7.0233   7.0235
     7.1986   7.2551   7.2678   7.2942   7.2942   7.3003   7.3006   7.3489
     7.4293   7.5446   7.5736   7.6759   8.0363   8.3973   8.4413   8.4415
     8.5373   8.6555   8.6557   8.9556   8.9556   9.0793   9.1121   9.1123
     9.1274   9.1277   9.2049   9.3007   9.3651   9.3718   9.4427   9.4429
     9.4741   9.4743   9.5403   9.5405   9.5820   9.6228   9.6925   9.6927
     9.7333   9.8585   9.9946   9.9948  10.2825  10.2827  10.3156  10.3508
    10.3511  10.3879  10.3882  10.3883  10.3886  10.3891  10.5896  10.6836
    10.7961  10.7964  10.7988  10.7993  10.8562  10.8565  10.8754  10.8756
    10.9435  10.9843  10.9844  11.0047  11.0189  11.1496  11.1498  11.1674
    11.1677  11.2214  11.2308  11.3601  11.3602  11.4107  11.4109  11.4115
    11.4116  11.4343  11.4570  11.5512  11.5741  11.6033  11.6799  11.7428
    11.8150  11.8254  11.8498  11.8915  11.8917  11.9872  11.9873  12.0541
    12.0904  12.1690  12.1837  12.3090  12.3095  12.3109  12.3111  12.3151
    12.3152  12.3354  12.3618  12.5172  12.5174  12.5305  12.5305  12.5551
    12.5807  12.6487  12.6490  12.6644  12.6697  12.6783  12.6787  12.6982

     occupation numbers 
     1.0000   1.0000   1.0000   1.0000   1.0000   1.0000   1.0000   1.0000
     1.0000   1.0000   1.0000   1.0000   1.0000   1.0000   1.0000   1.0000
     1.0000   1.0000   1.0000   1.0000   1.0000   1.0000   1.0000   1.0000
     1.0000   1.0000   1.0000   1.0000   1.0000   1.0000   1.0000   1.0000
     1.0000   1.0000   1.0000   1.0000   1.0000   1.0000   1.0000   1.0000
     1.0000   1.0000   1.0000   1.0000   1.0000   1.0000   1.0000   1.0000
     1.0000   1.0000   1.0000   1.0000   1.0000   1.0000   1.0000   1.0000
     1.0000   1.0000   1.0000   1.0000   1.0000   1.0000   1.0000   1.0000
     1.0000   1.0000   1.0000   1.0000   1.0000   1.0000   1.0000   1.0000
     1.0000   1.0000   1.0000   1.0000   1.0000   1.0000   1.0000   1.0000
     1.0000   1.0000   1.0000   1.0000   1.0000   1.0000   1.0000   1.0000
     1.0000   1.0000   1.0000   1.0000   1.0000   1.0000   1.0000   1.0000
     1.0000   1.0000   1.0000   1.0000   1.0000   1.0000   1.0000   1.0000
     1.0000   1.0000   1.0000   1.0000   1.0000   1.0000   1.0000   1.0000
     1.0000   1.0000   1.0000   1.0000   1.0000   1.0000   1.0000   1.0000
     1.0000   1.0000   1.0000   1.0000   1.0000   1.0000   1.0000   1.0000
     1.0000   1.0000   1.0000   1.0000   1.0000   1.0000   1.0000   1.0000
     1.0000   1.0000   1.0000   1.0000   1.0000   1.0000   1.0000   1.0000
     1.0000   1.0000   1.0000   1.0000   1.0000   1.0000   1.0000   1.0000
     1.0000   1.0000   1.0000   1.0000   1.0000   1.0000   1.0000   1.0000
     1.0000   1.0000   1.0000   1.0000   1.0000   1.0000   1.0000   1.0000
     1.0000   1.0000   1.0000   1.0000   1.0000   1.0000   1.0000   1.0000
     1.0000   1.0000   1.0000   1.0000   1.0000   1.0000   1.0000   1.0000
     1.0000   1.0000   1.0000   1.0000   1.0000   1.0000   1.0000   1.0000
     1.0000   1.0000   1.0000   1.0000   1.0000   1.0000   1.0000   1.0000
     1.0000   1.0000   1.0000   1.0000   1.0000   1.0000   1.0000   1.0000
     1.0000   1.0000   1.0000   1.0000   1.0000   1.0000   1.0000   1.0000
     1.0000   1.0000   1.0000   1.0000   1.0000   1.0000   1.0000   1.0000
     1.0000   1.0000   1.0000   1.0000   1.0000   1.0000   1.0000   1.0000
     1.0000   1.0000   1.0000   1.0000   1.0000   1.0000   1.0000   1.0000
     1.0000   1.0000   1.0000   1.0000   1.0000   1.0000   1.0000   1.0000
     1.0000   1.0000   1.0000   1.0000   1.0000   1.0000   1.0000   1.0000
     1.0000   1.0000   1.0000   1.0000   1.0000   1.0000   1.0000   1.0000
     1.0000   1.0000   1.0000   1.0000   1.0000   1.0000   1.0000   1.0000
     1.0000   1.0000   1.0000   1.0000   1.0000   1.0000   1.0000   1.0000
     1.0000   1.0000   1.0000   1.0000   1.0000   1.0000   1.0000   1.0000
     1.0000   1.0000   1.0000   1.0000   1.0000   1.0000   1.0000   1.0000
     1.0000   1.0000   1.0000   1.0000   1.0000   1.0000   1.0000   1.0000
     1.0000   1.0000   1.0000   1.0000   1.0000   1.0000   1.0000   1.0000
     1.0000   1.0000   1.0000   1.0000   1.0000   1.0000   1.0000   1.0000
     1.0000   1.0000   1.0000   1.0000   1.0000   1.0000   1.0000   1.0000
     1.0000   1.0000   1.0000   1.0000   1.0000   1.0000   1.0000   1.0000
     1.0000   1.0000   1.0000   1.0000   1.0000   1.0000   1.0000   1.0000
     1.0000   1.0000   1.0000   1.0000   1.0000   1.0000   1.0000   1.0000
     1.0000   1.0000   1.0000   1.0000   1.0000   1.0000   1.0000   1.0000
     1.0000   1.0000   1.0000   1.0000   1.0000   1.0000   1.0000   1.0000
     1.0000   1.0000   1.0000   1.0000   1.0000   1.0000   1.0000   1.0000
     1.0000   1.0000   1.0000   1.0000   1.0000   1.0000   1.0000   1.0000
     1.0000   1.0000   1.0000   1.0000   1.0000   1.0000   1.0000   1.0000
     1.0000   1.0000   1.0000   1.0000   1.0000   1.0000   1.0000   1.0000
     1.0000   1.0000   1.0000   1.0000   1.0000   1.0000   1.0000   1.0000
     1.0000   1.0000   1.0000   1.0000   1.0000   1.0000   1.0000   1.0000
     1.0000   1.0000   1.0000   1.0000   1.0000   1.0000   1.0000   1.0000
     1.0000   1.0000   1.0000   1.0000   1.0000   1.0000   1.0000   1.0000
     1.0000   1.0000   1.0000   1.0000   1.0000   1.0000   1.0000   1.0000
     1.0000   1.0000   1.0000   1.0000   1.0000   1.0000   1.0000   1.0000
     1.0000   1.0000   1.0000   1.0000   1.0000   1.0000   1.0000   1.0000
     1.0000   1.0000   1.0000   1.0000   1.0000   1.0000   1.0000   1.0000
     1.0000   1.0000   1.0000   1.0000   1.0000   1.0000   1.0000   1.0000
     1.0000   1.0000   1.0000   1.0000   1.0000   1.0000   1.0000   1.0000
     1.0000   1.0000   1.0000   1.0000   1.0000   1.0000   1.0000   1.0000
     1.0000   1.0000   1.0000   1.0000   1.0000   1.0000   1.0000   1.0000
     1.0000   1.0000   1.0000   1.0000   1.0000   1.0000   1.0000   1.0000
     1.0000   1.0000   1.0000   1.0000   1.0000   1.0000   1.0000   1.0000
     1.0000   1.0000   1.0000   1.0000   1.0000   1.0000   1.0000   1.0000
     1.0000   1.0000   1.0000   1.0000   1.0000   1.0000   1.0000   1.0000
     1.0000   1.0000   1.0000   1.0000   1.0000   1.0000   1.0000   1.0000
     1.0000   1.0000   1.0001   1.0037   0.1717  -0.0001  -0.0000  -0.0000
    -0.0000  -0.0000  -0.0000  -0.0000  -0.0000  -0.0000  -0.0000  -0.0000
    -0.0000  -0.0000  -0.0000  -0.0000  -0.0000  -0.0000  -0.0000  -0.0000
    -0.0000  -0.0000  -0.0000  -0.0000  -0.0000  -0.0000  -0.0000  -0.0000
    -0.0000  -0.0000  -0.0000  -0.0000  -0.0000  -0.0000  -0.0000  -0.0000
    -0.0000  -0.0000  -0.0000  -0.0000  -0.0000  -0.0000  -0.0000  -0.0000
    -0.0000  -0.0000  -0.0000  -0.0000  -0.0000  -0.0000  -0.0000  -0.0000
    -0.0000  -0.0000  -0.0000  -0.0000  -0.0000  -0.0000  -0.0000  -0.0000
    -0.0000  -0.0000  -0.0000  -0.0000  -0.0000  -0.0000  -0.0000  -0.0000
    -0.0000  -0.0000  -0.0000  -0.0000  -0.0000  -0.0000  -0.0000  -0.0000
    -0.0000  -0.0000  -0.0000  -0.0000  -0.0000  -0.0000  -0.0000  -0.0000
    -0.0000  -0.0000  -0.0000  -0.0000  -0.0000  -0.0000  -0.0000  -0.0000
    -0.0000  -0.0000  -0.0000  -0.0000  -0.0000  -0.0000  -0.0000  -0.0000
    -0.0000  -0.0000  -0.0000  -0.0000  -0.0000  -0.0000  -0.0000  -0.0000

          k = 0.2500 0.1443-0.4746 (554696 PWs)   bands (ev):

   -68.2859 -68.2855 -68.2851 -68.2849 -68.2847 -68.2846 -68.2846 -68.2846
   -68.2846 -68.2845 -68.2845 -68.2845 -68.2844 -68.2844 -68.2841 -68.2840
   -68.2838 -68.2835 -67.7455 -67.7452 -67.7450 -67.7447 -67.7445 -67.7445
   -67.7444 -67.7443 -67.7443 -67.7443 -67.7442 -67.7442 -67.7442 -67.7441
   -67.7441 -67.7440 -67.7440 -67.7440 -67.7439 -67.7438 -67.7438 -67.7438
   -67.7437 -67.7437 -67.7436 -67.7436 -67.7436 -67.7436 -67.7436 -67.7435
   -67.7435 -67.7434 -67.7434 -67.7433 -67.7433 -67.7428 -35.6969 -35.6966
   -35.6961 -35.6960 -35.6957 -35.6957 -35.6957 -35.6957 -35.6956 -35.6955
   -35.6955 -35.6955 -35.6955 -35.6954 -35.6952 -35.6950 -35.6949 -35.6946
   -35.6920 -35.6920 -35.6917 -35.6917 -35.6913 -35.6912 -35.6911 -35.6911
   -35.6908 -35.6908 -35.6908 -35.6908 -35.6908 -35.6908 -35.6907 -35.6907
   -35.6907 -35.6907 -35.6906 -35.6906 -35.6906 -35.6906 -35.6906 -35.6906
   -35.6906 -35.6905 -35.6905 -35.6905 -35.6903 -35.6903 -35.6902 -35.6901
   -35.6900 -35.6899 -35.6897 -35.6896 -35.1782 -35.1781 -35.1778 -35.1778
   -35.1777 -35.1777 -35.1776 -35.1776 -35.1774 -35.1774 -35.1773 -35.1773
   -35.1773 -35.1773 -35.1773 -35.1772 -35.1772 -35.1772 -35.1772 -35.1771
   -35.1771 -35.1771 -35.1771 -35.1771 -35.1770 -35.1770 -35.1770 -35.1770
   -35.1769 -35.1769 -35.1768 -35.1768 -35.1768 -35.1767 -35.1767 -35.1766
   -35.1764 -35.1763 -35.1762 -35.1762 -35.1759 -35.1758 -35.1756 -35.1756
   -35.1756 -35.1755 -35.1754 -35.1753 -35.1752 -35.1751 -35.1750 -35.1749
   -35.1741 -35.1739 -35.1712 -35.1710 -35.1709 -35.1709 -35.1708 -35.1707
   -35.1707 -35.1706 -35.1706 -35.1705 -35.1705 -35.1705 -35.1704 -35.1704
   -35.1704 -35.1704 -35.1703 -35.1702 -35.1702 -35.1701 -35.1699 -35.1696
   -35.1696 -35.1695 -35.1693 -35.1693 -35.1692 -35.1691 -35.1689 -35.1689
   -35.1689 -35.1687 -35.1687 -35.1687 -35.1686 -35.1685 -35.1684 -35.1684
   -35.1684 -35.1683 -35.1682 -35.1682 -35.1682 -35.1681 -35.1681 -35.1681
   -35.1681 -35.1681 -35.1680 -35.1680 -35.1680 -35.1680 -35.1680 -35.1676
   -14.2178 -14.2175 -14.2166 -14.2164 -14.2160 -14.2158 -14.2156 -14.2154
   -14.2154 -14.2148 -14.2147 -14.2144 -14.2143 -14.2142 -14.2139 -14.2138
   -14.2134 -14.2131 -14.2126 -14.2120 -14.2115 -14.2113 -14.2108 -14.2107
   -14.2105 -14.2104 -14.2102 -14.2101 -14.2098 -14.2097 -14.2097 -14.2095
   -14.2095 -14.2094 -14.2093 -14.2093 -14.2092 -14.2090 -14.2090 -14.2089
   -14.2088 -14.2087 -14.2087 -14.2086 -14.2085 -14.2084 -14.2083 -14.2082
   -14.2080 -14.2079 -14.2079 -14.2078 -14.2076 -14.2075 -14.2072 -14.2070
   -14.2067 -14.2065 -14.2062 -14.2053 -14.2051 -14.2050 -14.2049 -14.2046
   -14.2044 -14.2043 -14.2041 -14.2039 -14.2039 -14.2037 -14.2030 -14.2029
   -14.1901 -14.1884 -14.1883 -14.1878 -14.1875 -14.1873 -14.1872 -14.1870
   -14.1869 -14.1869 -14.1869 -14.1868 -14.1866 -14.1864 -14.1863 -14.1857
   -14.1854 -14.1851 -14.1848 -14.1846 -14.1845 -14.1844 -14.1842 -14.1841
   -14.1838 -14.1835 -14.1834 -14.1833 -14.1832 -14.1830 -14.1830 -14.1829
   -14.1827 -14.1824 -14.1823 -14.1806 -14.1749 -14.1748 -14.1738 -14.1737
   -14.1731 -14.1729 -14.1723 -14.1722 -14.1720 -14.1719 -14.1718 -14.1717
   -14.1716 -14.1715 -14.1714 -14.1713 -14.1710 -14.1709 -14.1707 -14.1706
   -14.1704 -14.1703 -14.1700 -14.1700 -14.1699 -14.1693 -14.1692 -14.1690
   -14.1688 -14.1680 -14.1680 -14.1673 -14.1658 -14.1655 -14.1653 -14.1649
   -14.1648 -14.1646 -14.1643 -14.1641 -14.1640 -14.1639 -14.1635 -14.1634
   -14.1631 -14.1630 -14.1629 -14.1627 -14.1624 -14.1620 -14.1617 -14.1613
   -14.1601 -14.1599 -14.1595 -14.1590 -14.1590 -14.1588 -14.1584 -14.1582
   -14.1582 -14.1581 -14.1579 -14.1576 -14.1575 -14.1575 -14.1573 -14.1572
   -14.1568 -14.1567 -14.1563 -14.1559  -3.5890  -3.5881  -3.3089  -3.3068
    -3.1886  -3.1881  -3.1862  -3.1857  -2.9946  -2.9940  -2.9904  -2.9900
    -2.9282  -2.9234  -2.8763  -2.8754  -2.7386  -2.7380  -2.7373  -2.7368
    -2.7235  -2.7205  -2.6712  -2.6706  -2.6676  -2.6671  -2.6138  -2.6132
    -2.6083  -2.6078  -2.6075  -2.6013  -2.5994  -2.5988  -2.5980  -2.5974
     3.1335   3.2198   3.3052   3.3052   3.4354   3.4356   3.4779   3.4780
     3.4783   3.4808   3.5069   3.5070   3.5827   3.5830   3.6189   3.7342
     3.7373   3.7376   3.8056   3.8273   3.8276   3.8689   3.8691   3.8828
     3.8977   3.8979   4.0318   4.0320   4.2030   4.2032   4.2639   4.2639
     4.2721   4.2724   4.4159   4.4162   4.5304   4.7541   4.9561   4.9564
     5.0415   5.0416   5.0437   5.0609   5.0611   5.0687   5.0690   5.1553
     5.1959   5.2380   5.3658   5.3661   5.3670   5.3670   5.7037   5.7039
     5.7314   5.7316   5.8664   5.8667   5.8668   5.8676   5.9014   5.9124
     5.9371   5.9374   5.9443   5.9445   6.0320   6.0765   6.3087   6.3459
     6.5409   6.5414   6.5461   6.5465   6.5541   6.5830   6.5832   6.6137
     6.6139   6.6535   6.6657   6.7220   6.8009   6.8014   6.8432   6.8434
     6.9331   6.9712   6.9894   6.9898   6.9901   6.9958   7.0232   7.0235
     7.1987   7.2551   7.2675   7.2940   7.2944   7.3001   7.3006   7.3487
     7.4296   7.5447   7.5733   7.6757   8.0362   8.3972   8.4414   8.4416
     8.5372   8.6555   8.6556   8.9555   8.9556   9.0791   9.1121   9.1124
     9.1274   9.1277   9.2046   9.3006   9.3651   9.3718   9.4426   9.4432
     9.4742   9.4743   9.5400   9.5406   9.5820   9.6229   9.6926   9.6929
     9.7332   9.8582   9.9945   9.9950  10.2825  10.2832  10.3158  10.3507
    10.3510  10.3881  10.3882  10.3884  10.3887  10.3888  10.5896  10.6835
    10.7962  10.7964  10.7990  10.7994  10.8563  10.8568  10.8750  10.8758
    10.9435  10.9841  10.9843  11.0044  11.0185  11.1494  11.1499  11.1673
    11.1675  11.2216  11.2309  11.3605  11.3606  11.4108  11.4112  11.4115
    11.4117  11.4341  11.4568  11.5510  11.5739  11.6031  11.6798  11.7431
    11.8147  11.8253  11.8498  11.8915  11.8917  11.9872  11.9875  12.0540
    12.0902  12.1693  12.1841  12.3092  12.3094  12.3109  12.3114  12.3149
    12.3151  12.3354  12.3618  12.5172  12.5173  12.5305  12.5308  12.5550
    12.5806  12.6488  12.6490  12.6641  12.6782  12.6784  12.6983  12.6986

     occupation numbers 
     1.0000   1.0000   1.0000   1.0000   1.0000   1.0000   1.0000   1.0000
     1.0000   1.0000   1.0000   1.0000   1.0000   1.0000   1.0000   1.0000
     1.0000   1.0000   1.0000   1.0000   1.0000   1.0000   1.0000   1.0000
     1.0000   1.0000   1.0000   1.0000   1.0000   1.0000   1.0000   1.0000
     1.0000   1.0000   1.0000   1.0000   1.0000   1.0000   1.0000   1.0000
     1.0000   1.0000   1.0000   1.0000   1.0000   1.0000   1.0000   1.0000
     1.0000   1.0000   1.0000   1.0000   1.0000   1.0000   1.0000   1.0000
     1.0000   1.0000   1.0000   1.0000   1.0000   1.0000   1.0000   1.0000
     1.0000   1.0000   1.0000   1.0000   1.0000   1.0000   1.0000   1.0000
     1.0000   1.0000   1.0000   1.0000   1.0000   1.0000   1.0000   1.0000
     1.0000   1.0000   1.0000   1.0000   1.0000   1.0000   1.0000   1.0000
     1.0000   1.0000   1.0000   1.0000   1.0000   1.0000   1.0000   1.0000
     1.0000   1.0000   1.0000   1.0000   1.0000   1.0000   1.0000   1.0000
     1.0000   1.0000   1.0000   1.0000   1.0000   1.0000   1.0000   1.0000
     1.0000   1.0000   1.0000   1.0000   1.0000   1.0000   1.0000   1.0000
     1.0000   1.0000   1.0000   1.0000   1.0000   1.0000   1.0000   1.0000
     1.0000   1.0000   1.0000   1.0000   1.0000   1.0000   1.0000   1.0000
     1.0000   1.0000   1.0000   1.0000   1.0000   1.0000   1.0000   1.0000
     1.0000   1.0000   1.0000   1.0000   1.0000   1.0000   1.0000   1.0000
     1.0000   1.0000   1.0000   1.0000   1.0000   1.0000   1.0000   1.0000
     1.0000   1.0000   1.0000   1.0000   1.0000   1.0000   1.0000   1.0000
     1.0000   1.0000   1.0000   1.0000   1.0000   1.0000   1.0000   1.0000
     1.0000   1.0000   1.0000   1.0000   1.0000   1.0000   1.0000   1.0000
     1.0000   1.0000   1.0000   1.0000   1.0000   1.0000   1.0000   1.0000
     1.0000   1.0000   1.0000   1.0000   1.0000   1.0000   1.0000   1.0000
     1.0000   1.0000   1.0000   1.0000   1.0000   1.0000   1.0000   1.0000
     1.0000   1.0000   1.0000   1.0000   1.0000   1.0000   1.0000   1.0000
     1.0000   1.0000   1.0000   1.0000   1.0000   1.0000   1.0000   1.0000
     1.0000   1.0000   1.0000   1.0000   1.0000   1.0000   1.0000   1.0000
     1.0000   1.0000   1.0000   1.0000   1.0000   1.0000   1.0000   1.0000
     1.0000   1.0000   1.0000   1.0000   1.0000   1.0000   1.0000   1.0000
     1.0000   1.0000   1.0000   1.0000   1.0000   1.0000   1.0000   1.0000
     1.0000   1.0000   1.0000   1.0000   1.0000   1.0000   1.0000   1.0000
     1.0000   1.0000   1.0000   1.0000   1.0000   1.0000   1.0000   1.0000
     1.0000   1.0000   1.0000   1.0000   1.0000   1.0000   1.0000   1.0000
     1.0000   1.0000   1.0000   1.0000   1.0000   1.0000   1.0000   1.0000
     1.0000   1.0000   1.0000   1.0000   1.0000   1.0000   1.0000   1.0000
     1.0000   1.0000   1.0000   1.0000   1.0000   1.0000   1.0000   1.0000
     1.0000   1.0000   1.0000   1.0000   1.0000   1.0000   1.0000   1.0000
     1.0000   1.0000   1.0000   1.0000   1.0000   1.0000   1.0000   1.0000
     1.0000   1.0000   1.0000   1.0000   1.0000   1.0000   1.0000   1.0000
     1.0000   1.0000   1.0000   1.0000   1.0000   1.0000   1.0000   1.0000
     1.0000   1.0000   1.0000   1.0000   1.0000   1.0000   1.0000   1.0000
     1.0000   1.0000   1.0000   1.0000   1.0000   1.0000   1.0000   1.0000
     1.0000   1.0000   1.0000   1.0000   1.0000   1.0000   1.0000   1.0000
     1.0000   1.0000   1.0000   1.0000   1.0000   1.0000   1.0000   1.0000
     1.0000   1.0000   1.0000   1.0000   1.0000   1.0000   1.0000   1.0000
     1.0000   1.0000   1.0000   1.0000   1.0000   1.0000   1.0000   1.0000
     1.0000   1.0000   1.0000   1.0000   1.0000   1.0000   1.0000   1.0000
     1.0000   1.0000   1.0000   1.0000   1.0000   1.0000   1.0000   1.0000
     1.0000   1.0000   1.0000   1.0000   1.0000   1.0000   1.0000   1.0000
     1.0000   1.0000   1.0000   1.0000   1.0000   1.0000   1.0000   1.0000
     1.0000   1.0000   1.0000   1.0000   1.0000   1.0000   1.0000   1.0000
     1.0000   1.0000   1.0000   1.0000   1.0000   1.0000   1.0000   1.0000
     1.0000   1.0000   1.0000   1.0000   1.0000   1.0000   1.0000   1.0000
     1.0000   1.0000   1.0000   1.0000   1.0000   1.0000   1.0000   1.0000
     1.0000   1.0000   1.0000   1.0000   1.0000   1.0000   1.0000   1.0000
     1.0000   1.0000   1.0000   1.0000   1.0000   1.0000   1.0000   1.0000
     1.0000   1.0000   1.0000   1.0000   1.0000   1.0000   1.0000   1.0000
     1.0000   1.0000   1.0000   1.0000   1.0000   1.0000   1.0000   1.0000
     1.0000   1.0000   1.0000   1.0000   1.0000   1.0000   1.0000   1.0000
     1.0000   1.0000   1.0000   1.0000   1.0000   1.0000   1.0000   1.0000
     1.0000   1.0000   1.0000   1.0000   1.0000   1.0000   1.0000   1.0000
     1.0000   1.0000   1.0000   1.0000   1.0000   1.0000   1.0000   1.0000
     1.0000   1.0000   1.0000   1.0000   1.0000   1.0000   1.0000   1.0000
     1.0000   1.0000   1.0000   1.0000   1.0000   1.0000   1.0000   1.0000
     1.0000   1.0000   1.0000   1.0000   1.0000   1.0000   1.0000   1.0000
     1.0000   1.0000   1.0001   1.0037   0.1722  -0.0001  -0.0000  -0.0000
    -0.0000  -0.0000  -0.0000  -0.0000  -0.0000  -0.0000  -0.0000  -0.0000
    -0.0000  -0.0000  -0.0000  -0.0000  -0.0000  -0.0000  -0.0000  -0.0000
    -0.0000  -0.0000  -0.0000  -0.0000  -0.0000  -0.0000  -0.0000  -0.0000
    -0.0000  -0.0000  -0.0000  -0.0000  -0.0000  -0.0000  -0.0000  -0.0000
    -0.0000  -0.0000  -0.0000  -0.0000  -0.0000  -0.0000  -0.0000  -0.0000
    -0.0000  -0.0000  -0.0000  -0.0000  -0.0000  -0.0000  -0.0000  -0.0000
    -0.0000  -0.0000  -0.0000  -0.0000  -0.0000  -0.0000  -0.0000  -0.0000
    -0.0000  -0.0000  -0.0000  -0.0000  -0.0000  -0.0000  -0.0000  -0.0000
    -0.0000  -0.0000  -0.0000  -0.0000  -0.0000  -0.0000  -0.0000  -0.0000
    -0.0000  -0.0000  -0.0000  -0.0000  -0.0000  -0.0000  -0.0000  -0.0000
    -0.0000  -0.0000  -0.0000  -0.0000  -0.0000  -0.0000  -0.0000  -0.0000
    -0.0000  -0.0000  -0.0000  -0.0000  -0.0000  -0.0000  -0.0000  -0.0000
    -0.0000  -0.0000  -0.0000  -0.0000  -0.0000  -0.0000  -0.0000  -0.0000

          k = 0.5000-0.2887 0.0000 (554524 PWs)   bands (ev):

   -68.2859 -68.2855 -68.2851 -68.2849 -68.2847 -68.2846 -68.2846 -68.2846
   -68.2846 -68.2845 -68.2845 -68.2845 -68.2844 -68.2844 -68.2841 -68.2840
   -68.2838 -68.2835 -67.7455 -67.7452 -67.7450 -67.7447 -67.7445 -67.7444
   -67.7444 -67.7444 -67.7443 -67.7443 -67.7443 -67.7442 -67.7441 -67.7441
   -67.7441 -67.7441 -67.7440 -67.7440 -67.7439 -67.7438 -67.7438 -67.7437
   -67.7437 -67.7437 -67.7437 -67.7437 -67.7437 -67.7436 -67.7435 -67.7435
   -67.7435 -67.7434 -67.7434 -67.7433 -67.7433 -67.7428 -35.6969 -35.6966
   -35.6961 -35.6960 -35.6957 -35.6957 -35.6957 -35.6957 -35.6956 -35.6955
   -35.6955 -35.6955 -35.6955 -35.6954 -35.6952 -35.6950 -35.6949 -35.6946
   -35.6920 -35.6920 -35.6917 -35.6917 -35.6913 -35.6912 -35.6911 -35.6911
   -35.6908 -35.6908 -35.6908 -35.6908 -35.6908 -35.6908 -35.6907 -35.6907
   -35.6907 -35.6907 -35.6907 -35.6906 -35.6906 -35.6906 -35.6906 -35.6906
   -35.6906 -35.6905 -35.6905 -35.6905 -35.6903 -35.6903 -35.6902 -35.6901
   -35.6900 -35.6899 -35.6897 -35.6896 -35.1782 -35.1781 -35.1778 -35.1778
   -35.1777 -35.1777 -35.1775 -35.1775 -35.1775 -35.1775 -35.1774 -35.1774
   -35.1773 -35.1773 -35.1773 -35.1773 -35.1772 -35.1772 -35.1771 -35.1771
   -35.1771 -35.1770 -35.1770 -35.1770 -35.1770 -35.1770 -35.1770 -35.1770
   -35.1770 -35.1769 -35.1768 -35.1768 -35.1768 -35.1768 -35.1768 -35.1767
   -35.1762 -35.1761 -35.1760 -35.1760 -35.1759 -35.1758 -35.1758 -35.1758
   -35.1758 -35.1757 -35.1753 -35.1752 -35.1751 -35.1751 -35.1746 -35.1744
   -35.1743 -35.1743 -35.1712 -35.1710 -35.1709 -35.1708 -35.1708 -35.1707
   -35.1706 -35.1706 -35.1705 -35.1705 -35.1705 -35.1705 -35.1704 -35.1703
   -35.1703 -35.1703 -35.1703 -35.1703 -35.1702 -35.1702 -35.1702 -35.1701
   -35.1697 -35.1696 -35.1694 -35.1694 -35.1691 -35.1690 -35.1689 -35.1688
   -35.1687 -35.1687 -35.1686 -35.1686 -35.1686 -35.1686 -35.1685 -35.1685
   -35.1684 -35.1683 -35.1682 -35.1682 -35.1682 -35.1681 -35.1681 -35.1681
   -35.1681 -35.1681 -35.1681 -35.1680 -35.1680 -35.1680 -35.1680 -35.1676
   -14.2182 -14.2169 -14.2168 -14.2162 -14.2159 -14.2156 -14.2151 -14.2150
   -14.2148 -14.2147 -14.2147 -14.2146 -14.2144 -14.2142 -14.2140 -14.2139
   -14.2135 -14.2131 -14.2122 -14.2120 -14.2116 -14.2115 -14.2112 -14.2108
   -14.2107 -14.2106 -14.2105 -14.2104 -14.2104 -14.2103 -14.2101 -14.2100
   -14.2099 -14.2097 -14.2096 -14.2094 -14.2092 -14.2091 -14.2089 -14.2086
   -14.2084 -14.2083 -14.2082 -14.2080 -14.2080 -14.2079 -14.2078 -14.2077
   -14.2077 -14.2075 -14.2075 -14.2074 -14.2072 -14.2072 -14.2070 -14.2069
   -14.2067 -14.2064 -14.2063 -14.2062 -14.2060 -14.2057 -14.2053 -14.2052
   -14.2050 -14.2048 -14.2042 -14.2037 -14.2036 -14.2033 -14.2031 -14.2024
   -14.1900 -14.1885 -14.1880 -14.1878 -14.1876 -14.1874 -14.1873 -14.1870
   -14.1866 -14.1865 -14.1864 -14.1864 -14.1863 -14.1861 -14.1860 -14.1857
   -14.1855 -14.1854 -14.1853 -14.1853 -14.1851 -14.1849 -14.1846 -14.1845
   -14.1841 -14.1838 -14.1836 -14.1832 -14.1831 -14.1828 -14.1828 -14.1827
   -14.1826 -14.1823 -14.1820 -14.1806 -14.1746 -14.1744 -14.1735 -14.1734
   -14.1731 -14.1730 -14.1729 -14.1728 -14.1725 -14.1724 -14.1721 -14.1719
   -14.1717 -14.1716 -14.1715 -14.1713 -14.1712 -14.1710 -14.1706 -14.1705
   -14.1705 -14.1705 -14.1702 -14.1700 -14.1698 -14.1689 -14.1679 -14.1675
   -14.1674 -14.1673 -14.1671 -14.1666 -14.1665 -14.1664 -14.1664 -14.1662
   -14.1656 -14.1655 -14.1645 -14.1642 -14.1641 -14.1639 -14.1636 -14.1636
   -14.1633 -14.1632 -14.1624 -14.1622 -14.1618 -14.1615 -14.1613 -14.1608
   -14.1605 -14.1601 -14.1595 -14.1591 -14.1588 -14.1587 -14.1586 -14.1585
   -14.1584 -14.1582 -14.1582 -14.1578 -14.1577 -14.1574 -14.1571 -14.1570
   -14.1569 -14.1566 -14.1562 -14.1556  -3.5718  -3.5713  -3.3138  -3.3134
    -3.2956  -3.2954  -3.0766  -3.0764  -3.0225  -3.0219  -2.9090  -2.9083
    -2.9083  -2.9078  -2.8852  -2.8455  -2.8453  -2.7805  -2.7799  -2.7799
    -2.7794  -2.7650  -2.6758  -2.6695  -2.6689  -2.6688  -2.6682  -2.6656
    -2.6650  -2.5710  -2.5708  -2.5653  -2.5451  -2.5445  -2.5444  -2.5439
     2.9702   3.2043   3.2196   3.2204   3.2806   3.2810   3.2811   3.2813
     3.3886   3.5014   3.5018   3.5019   3.5021   3.5753   3.5755   3.5756
     3.5760   3.6929   3.6932   3.9519   3.9521   4.0314   4.0315   4.1586
     4.2801   4.2807   4.2808   4.2810   4.3692   4.3701   4.5500   4.5501
     4.5623   4.5626   4.5628   4.5637   4.6068   4.6074   4.6301   4.6303
     4.6859   4.9404   4.9405   4.9406   4.9407   5.0601   5.0605   5.0607
     5.0607   5.4194   5.4195   5.4968   5.4970   5.4972   5.4973   5.7071
     5.7996   5.8025   5.8027   6.0076   6.0078   6.0579   6.0583   6.0637
     6.0638   6.1149   6.1152   6.1157   6.1161   6.1337   6.1583   6.3347
     6.3350   6.3447   6.3448   6.3449   6.3451   6.4668   6.4671   6.4697
     6.4700   6.4895   6.4895   6.5018   6.5181   6.5187   6.5272   6.7378
     6.7381   6.7382   6.7384   6.8688   6.8690   6.8691   6.8695   6.9065
     6.9067   6.9241   6.9243   7.1517   7.1523   7.1861   7.1863   7.2638
     7.7356   7.7362   7.8219   7.8227   8.2803   8.4090   8.8506   8.8506
     8.8511   8.8515   9.0688   9.1754   9.1755   9.1756   9.1759   9.3658
     9.3659   9.5386   9.5388   9.6129   9.6131   9.6133   9.6136   9.6178
     9.6182   9.6215   9.6220   9.6281   9.6282   9.6653   9.7029  10.0582
    10.0587  10.0628  10.0629  10.0630  10.0635  10.2343  10.2489  10.4488
    10.4489  10.5444  10.5448  10.6256  10.6260  10.7826  10.7828  10.7892
    10.7902  10.7902  10.7904  10.8399  10.8401  10.8504  10.8695  10.8697
    10.9329  10.9330  10.9332  10.9334  11.0547  11.0548  11.0956  11.0957
    11.0958  11.0959  11.2567  11.2569  11.2790  11.2791  11.2797  11.2800
    11.3079  11.3084  11.3276  11.3282  11.3754  11.3757  11.4341  11.4352
    11.4973  11.4976  11.6018  11.6019  11.7056  11.7059  11.8305  11.8306
    11.8308  11.8312  11.9052  11.9053  12.0284  12.0287  12.0289  12.0292
    12.1191  12.1196  12.3006  12.3011  12.3508  12.3509  12.3530  12.3532
    12.4855  12.4858  12.5636  12.5638  12.5730  12.6900  12.6903  12.8096

     occupation numbers 
     1.0000   1.0000   1.0000   1.0000   1.0000   1.0000   1.0000   1.0000
     1.0000   1.0000   1.0000   1.0000   1.0000   1.0000   1.0000   1.0000
     1.0000   1.0000   1.0000   1.0000   1.0000   1.0000   1.0000   1.0000
     1.0000   1.0000   1.0000   1.0000   1.0000   1.0000   1.0000   1.0000
     1.0000   1.0000   1.0000   1.0000   1.0000   1.0000   1.0000   1.0000
     1.0000   1.0000   1.0000   1.0000   1.0000   1.0000   1.0000   1.0000
     1.0000   1.0000   1.0000   1.0000   1.0000   1.0000   1.0000   1.0000
     1.0000   1.0000   1.0000   1.0000   1.0000   1.0000   1.0000   1.0000
     1.0000   1.0000   1.0000   1.0000   1.0000   1.0000   1.0000   1.0000
     1.0000   1.0000   1.0000   1.0000   1.0000   1.0000   1.0000   1.0000
     1.0000   1.0000   1.0000   1.0000   1.0000   1.0000   1.0000   1.0000
     1.0000   1.0000   1.0000   1.0000   1.0000   1.0000   1.0000   1.0000
     1.0000   1.0000   1.0000   1.0000   1.0000   1.0000   1.0000   1.0000
     1.0000   1.0000   1.0000   1.0000   1.0000   1.0000   1.0000   1.0000
     1.0000   1.0000   1.0000   1.0000   1.0000   1.0000   1.0000   1.0000
     1.0000   1.0000   1.0000   1.0000   1.0000   1.0000   1.0000   1.0000
     1.0000   1.0000   1.0000   1.0000   1.0000   1.0000   1.0000   1.0000
     1.0000   1.0000   1.0000   1.0000   1.0000   1.0000   1.0000   1.0000
     1.0000   1.0000   1.0000   1.0000   1.0000   1.0000   1.0000   1.0000
     1.0000   1.0000   1.0000   1.0000   1.0000   1.0000   1.0000   1.0000
     1.0000   1.0000   1.0000   1.0000   1.0000   1.0000   1.0000   1.0000
     1.0000   1.0000   1.0000   1.0000   1.0000   1.0000   1.0000   1.0000
     1.0000   1.0000   1.0000   1.0000   1.0000   1.0000   1.0000   1.0000
     1.0000   1.0000   1.0000   1.0000   1.0000   1.0000   1.0000   1.0000
     1.0000   1.0000   1.0000   1.0000   1.0000   1.0000   1.0000   1.0000
     1.0000   1.0000   1.0000   1.0000   1.0000   1.0000   1.0000   1.0000
     1.0000   1.0000   1.0000   1.0000   1.0000   1.0000   1.0000   1.0000
     1.0000   1.0000   1.0000   1.0000   1.0000   1.0000   1.0000   1.0000
     1.0000   1.0000   1.0000   1.0000   1.0000   1.0000   1.0000   1.0000
     1.0000   1.0000   1.0000   1.0000   1.0000   1.0000   1.0000   1.0000
     1.0000   1.0000   1.0000   1.0000   1.0000   1.0000   1.0000   1.0000
     1.0000   1.0000   1.0000   1.0000   1.0000   1.0000   1.0000   1.0000
     1.0000   1.0000   1.0000   1.0000   1.0000   1.0000   1.0000   1.0000
     1.0000   1.0000   1.0000   1.0000   1.0000   1.0000   1.0000   1.0000
     1.0000   1.0000   1.0000   1.0000   1.0000   1.0000   1.0000   1.0000
     1.0000   1.0000   1.0000   1.0000   1.0000   1.0000   1.0000   1.0000
     1.0000   1.0000   1.0000   1.0000   1.0000   1.0000   1.0000   1.0000
     1.0000   1.0000   1.0000   1.0000   1.0000   1.0000   1.0000   1.0000
     1.0000   1.0000   1.0000   1.0000   1.0000   1.0000   1.0000   1.0000
     1.0000   1.0000   1.0000   1.0000   1.0000   1.0000   1.0000   1.0000
     1.0000   1.0000   1.0000   1.0000   1.0000   1.0000   1.0000   1.0000
     1.0000   1.0000   1.0000   1.0000   1.0000   1.0000   1.0000   1.0000
     1.0000   1.0000   1.0000   1.0000   1.0000   1.0000   1.0000   1.0000
     1.0000   1.0000   1.0000   1.0000   1.0000   1.0000   1.0000   1.0000
     1.0000   1.0000   1.0000   1.0000   1.0000   1.0000   1.0000   1.0000
     1.0000   1.0000   1.0000   1.0000   1.0000   1.0000   1.0000   1.0000
     1.0000   1.0000   1.0000   1.0000   1.0000   1.0000   1.0000   1.0000
     1.0000   1.0000   1.0000   1.0000   1.0000   1.0000   1.0000   1.0000
     1.0000   1.0000   1.0000   1.0000   1.0000   1.0000   1.0000   1.0000
     1.0000   1.0000   1.0000   1.0000   1.0000   1.0000   1.0000   1.0000
     1.0000   1.0000   1.0000   1.0000   1.0000   1.0000   1.0000   1.0000
     1.0000   1.0000   1.0000   1.0000   1.0000   1.0000   1.0000   1.0000
     1.0000   1.0000   1.0000   1.0000   1.0000   1.0000   1.0000   1.0000
     1.0000   1.0000   1.0000   1.0000   1.0000   1.0000   1.0000   1.0000
     1.0000   1.0000   1.0000   1.0000   1.0000   1.0000   1.0000   1.0000
     1.0000   1.0000   1.0000   1.0000   1.0000   1.0000   1.0000   1.0000
     1.0000   1.0000   1.0000   1.0000   1.0000   1.0000   1.0000   1.0000
     1.0000   1.0000   1.0000   1.0000   1.0000   1.0000   1.0000   1.0000
     1.0000   1.0000   1.0000   1.0000   1.0000   1.0000   1.0000   1.0000
     1.0000   1.0000   1.0000   1.0000   1.0000   1.0000   1.0000   1.0000
     1.0000   1.0000   1.0000   1.0000   1.0000   1.0000   1.0000   1.0000
     1.0000   1.0000   1.0000   1.0000   1.0000   1.0000   1.0000   1.0000
     1.0000   1.0000   1.0000   1.0000   1.0000   1.0000   1.0000   1.0000
     1.0000   1.0000   1.0000   1.0000   1.0000   1.0000   1.0000   1.0000
     1.0000   1.0000   1.0000   1.0000   1.0000   1.0000   1.0000   1.0000
     1.0000   1.0000   1.0000   1.0000   1.0000   1.0000   1.0000   1.0000
     1.0000   1.0000   1.0000   1.0000   1.0000   1.0000   1.0000   1.0000
     1.0151   1.0153   1.0344   1.0343  -0.0037  -0.0000  -0.0000  -0.0000
    -0.0000  -0.0000  -0.0000  -0.0000  -0.0000  -0.0000  -0.0000  -0.0000
    -0.0000  -0.0000  -0.0000  -0.0000  -0.0000  -0.0000  -0.0000  -0.0000
    -0.0000  -0.0000  -0.0000  -0.0000  -0.0000  -0.0000  -0.0000  -0.0000
    -0.0000  -0.0000  -0.0000  -0.0000  -0.0000  -0.0000  -0.0000  -0.0000
    -0.0000  -0.0000  -0.0000  -0.0000  -0.0000  -0.0000  -0.0000  -0.0000
    -0.0000  -0.0000  -0.0000  -0.0000  -0.0000  -0.0000  -0.0000  -0.0000
    -0.0000  -0.0000  -0.0000  -0.0000  -0.0000  -0.0000  -0.0000  -0.0000
    -0.0000  -0.0000  -0.0000  -0.0000  -0.0000  -0.0000  -0.0000  -0.0000
    -0.0000  -0.0000  -0.0000  -0.0000  -0.0000  -0.0000  -0.0000  -0.0000
    -0.0000  -0.0000  -0.0000  -0.0000  -0.0000  -0.0000  -0.0000  -0.0000
    -0.0000  -0.0000  -0.0000  -0.0000  -0.0000  -0.0000  -0.0000  -0.0000
    -0.0000  -0.0000  -0.0000  -0.0000  -0.0000  -0.0000  -0.0000  -0.0000
    -0.0000  -0.0000  -0.0000  -0.0000  -0.0000  -0.0000  -0.0000  -0.0000

          k =-0.5000-0.2887 0.0000 (554524 PWs)   bands (ev):

   -68.2859 -68.2855 -68.2851 -68.2849 -68.2847 -68.2846 -68.2846 -68.2846
   -68.2846 -68.2845 -68.2845 -68.2845 -68.2844 -68.2844 -68.2841 -68.2840
   -68.2838 -68.2835 -67.7455 -67.7452 -67.7450 -67.7447 -67.7445 -67.7444
   -67.7444 -67.7444 -67.7443 -67.7443 -67.7442 -67.7442 -67.7441 -67.7441
   -67.7441 -67.7440 -67.7440 -67.7440 -67.7439 -67.7438 -67.7438 -67.7437
   -67.7437 -67.7437 -67.7437 -67.7436 -67.7436 -67.7436 -67.7436 -67.7435
   -67.7434 -67.7434 -67.7434 -67.7433 -67.7433 -67.7428 -35.6969 -35.6966
   -35.6961 -35.6960 -35.6957 -35.6957 -35.6957 -35.6957 -35.6956 -35.6955
   -35.6955 -35.6955 -35.6955 -35.6954 -35.6952 -35.6950 -35.6949 -35.6946
   -35.6920 -35.6920 -35.6917 -35.6917 -35.6913 -35.6912 -35.6911 -35.6911
   -35.6908 -35.6908 -35.6908 -35.6908 -35.6908 -35.6908 -35.6907 -35.6907
   -35.6907 -35.6907 -35.6907 -35.6906 -35.6906 -35.6906 -35.6906 -35.6906
   -35.6906 -35.6906 -35.6905 -35.6905 -35.6903 -35.6903 -35.6902 -35.6901
   -35.6900 -35.6899 -35.6897 -35.6896 -35.1781 -35.1781 -35.1779 -35.1778
   -35.1777 -35.1777 -35.1775 -35.1775 -35.1775 -35.1775 -35.1775 -35.1774
   -35.1773 -35.1773 -35.1773 -35.1773 -35.1772 -35.1772 -35.1772 -35.1771
   -35.1771 -35.1771 -35.1770 -35.1770 -35.1770 -35.1770 -35.1770 -35.1770
   -35.1769 -35.1769 -35.1768 -35.1768 -35.1768 -35.1768 -35.1768 -35.1767
   -35.1762 -35.1761 -35.1760 -35.1759 -35.1759 -35.1759 -35.1758 -35.1758
   -35.1758 -35.1757 -35.1753 -35.1753 -35.1751 -35.1751 -35.1746 -35.1744
   -35.1743 -35.1743 -35.1712 -35.1710 -35.1709 -35.1708 -35.1708 -35.1707
   -35.1706 -35.1706 -35.1705 -35.1705 -35.1705 -35.1704 -35.1704 -35.1703
   -35.1703 -35.1703 -35.1703 -35.1702 -35.1702 -35.1702 -35.1702 -35.1702
   -35.1697 -35.1696 -35.1694 -35.1694 -35.1692 -35.1690 -35.1688 -35.1688
   -35.1687 -35.1687 -35.1687 -35.1686 -35.1686 -35.1686 -35.1685 -35.1684
   -35.1684 -35.1683 -35.1683 -35.1682 -35.1682 -35.1681 -35.1681 -35.1681
   -35.1681 -35.1681 -35.1681 -35.1680 -35.1680 -35.1680 -35.1680 -35.1676
   -14.2180 -14.2173 -14.2166 -14.2161 -14.2159 -14.2157 -14.2151 -14.2150
   -14.2148 -14.2147 -14.2147 -14.2146 -14.2145 -14.2142 -14.2140 -14.2139
   -14.2132 -14.2131 -14.2125 -14.2118 -14.2116 -14.2115 -14.2112 -14.2109
   -14.2107 -14.2107 -14.2106 -14.2105 -14.2103 -14.2102 -14.2101 -14.2099
   -14.2099 -14.2098 -14.2097 -14.2093 -14.2091 -14.2091 -14.2089 -14.2086
   -14.2083 -14.2082 -14.2081 -14.2081 -14.2080 -14.2079 -14.2078 -14.2077
   -14.2077 -14.2076 -14.2075 -14.2074 -14.2074 -14.2072 -14.2071 -14.2067
   -14.2066 -14.2065 -14.2063 -14.2063 -14.2059 -14.2057 -14.2053 -14.2052
   -14.2050 -14.2046 -14.2044 -14.2037 -14.2036 -14.2034 -14.2028 -14.2025
   -14.1900 -14.1883 -14.1881 -14.1877 -14.1876 -14.1874 -14.1873 -14.1868
   -14.1866 -14.1865 -14.1864 -14.1864 -14.1862 -14.1862 -14.1860 -14.1856
   -14.1855 -14.1854 -14.1854 -14.1853 -14.1851 -14.1848 -14.1847 -14.1845
   -14.1841 -14.1838 -14.1834 -14.1832 -14.1831 -14.1829 -14.1828 -14.1827
   -14.1826 -14.1824 -14.1820 -14.1806 -14.1746 -14.1745 -14.1733 -14.1733
   -14.1730 -14.1730 -14.1729 -14.1729 -14.1727 -14.1724 -14.1723 -14.1720
   -14.1716 -14.1716 -14.1715 -14.1714 -14.1711 -14.1711 -14.1705 -14.1705
   -14.1704 -14.1703 -14.1702 -14.1701 -14.1697 -14.1688 -14.1679 -14.1674
   -14.1674 -14.1672 -14.1671 -14.1666 -14.1665 -14.1664 -14.1664 -14.1663
   -14.1656 -14.1654 -14.1646 -14.1644 -14.1639 -14.1639 -14.1636 -14.1635
   -14.1633 -14.1632 -14.1624 -14.1621 -14.1617 -14.1615 -14.1613 -14.1606
   -14.1604 -14.1602 -14.1597 -14.1590 -14.1590 -14.1586 -14.1585 -14.1585
   -14.1583 -14.1581 -14.1581 -14.1579 -14.1576 -14.1575 -14.1571 -14.1570
   -14.1569 -14.1565 -14.1563 -14.1555  -3.5718  -3.5713  -3.3139  -3.3133
    -3.2957  -3.2952  -3.0767  -3.0763  -3.0225  -3.0219  -2.9089  -2.9084
    -2.9083  -2.9078  -2.8853  -2.8457  -2.8451  -2.7805  -2.7799  -2.7799
    -2.7794  -2.7650  -2.6758  -2.6695  -2.6689  -2.6688  -2.6682  -2.6655
    -2.6651  -2.5711  -2.5706  -2.5653  -2.5451  -2.5445  -2.5444  -2.5439
     2.9702   3.2045   3.2197   3.2203   3.2808   3.2810   3.2811   3.2814
     3.3890   3.5012   3.5017   3.5019   3.5022   3.5751   3.5754   3.5755
     3.5759   3.6928   3.6935   3.9518   3.9520   4.0312   4.0313   4.1588
     4.2804   4.2807   4.2808   4.2810   4.3694   4.3699   4.5496   4.5501
     4.5623   4.5626   4.5628   4.5636   4.6071   4.6073   4.6296   4.6302
     4.6857   4.9403   4.9404   4.9407   4.9409   5.0600   5.0605   5.0607
     5.0608   5.4195   5.4199   5.4968   5.4970   5.4972   5.4973   5.7069
     5.8000   5.8026   5.8027   6.0077   6.0081   6.0583   6.0584   6.0638
     6.0642   6.1151   6.1152   6.1156   6.1159   6.1336   6.1582   6.3349
     6.3353   6.3447   6.3448   6.3451   6.3451   6.4668   6.4670   6.4697
     6.4701   6.4894   6.4896   6.5016   6.5178   6.5185   6.5272   6.7379
     6.7380   6.7383   6.7386   6.8688   6.8689   6.8691   6.8695   6.9060
     6.9068   6.9243   6.9247   7.1512   7.1522   7.1857   7.1863   7.2637
     7.7352   7.7361   7.8222   7.8226   8.2801   8.4092   8.8507   8.8507
     8.8511   8.8513   9.0691   9.1752   9.1754   9.1756   9.1758   9.3657
     9.3660   9.5382   9.5388   9.6128   9.6131   9.6132   9.6136   9.6179
     9.6181   9.6217   9.6218   9.6282   9.6285   9.6651   9.7028  10.0579
    10.0585  10.0628  10.0630  10.0631  10.0637  10.2341  10.2487  10.4487
    10.4489  10.5445  10.5448  10.6254  10.6262  10.7825  10.7829  10.7902
    10.7902  10.7903  10.7904  10.8398  10.8404  10.8502  10.8696  10.8698
    10.9330  10.9330  10.9334  10.9336  11.0546  11.0548  11.0957  11.0958
    11.0959  11.0961  11.2565  11.2568  11.2790  11.2793  11.2797  11.2798
    11.3080  11.3083  11.3279  11.3282  11.3752  11.3756  11.4343  11.4346
    11.4973  11.4975  11.6020  11.6022  11.7053  11.7057  11.8306  11.8306
    11.8308  11.8311  11.9047  11.9053  12.0285  12.0288  12.0290  12.0290
    12.1191  12.1201  12.3009  12.3011  12.3508  12.3512  12.3534  12.3538
    12.4857  12.4864  12.5634  12.5638  12.5728  12.6900  12.6903  12.8097

     occupation numbers 
     1.0000   1.0000   1.0000   1.0000   1.0000   1.0000   1.0000   1.0000
     1.0000   1.0000   1.0000   1.0000   1.0000   1.0000   1.0000   1.0000
     1.0000   1.0000   1.0000   1.0000   1.0000   1.0000   1.0000   1.0000
     1.0000   1.0000   1.0000   1.0000   1.0000   1.0000   1.0000   1.0000
     1.0000   1.0000   1.0000   1.0000   1.0000   1.0000   1.0000   1.0000
     1.0000   1.0000   1.0000   1.0000   1.0000   1.0000   1.0000   1.0000
     1.0000   1.0000   1.0000   1.0000   1.0000   1.0000   1.0000   1.0000
     1.0000   1.0000   1.0000   1.0000   1.0000   1.0000   1.0000   1.0000
     1.0000   1.0000   1.0000   1.0000   1.0000   1.0000   1.0000   1.0000
     1.0000   1.0000   1.0000   1.0000   1.0000   1.0000   1.0000   1.0000
     1.0000   1.0000   1.0000   1.0000   1.0000   1.0000   1.0000   1.0000
     1.0000   1.0000   1.0000   1.0000   1.0000   1.0000   1.0000   1.0000
     1.0000   1.0000   1.0000   1.0000   1.0000   1.0000   1.0000   1.0000
     1.0000   1.0000   1.0000   1.0000   1.0000   1.0000   1.0000   1.0000
     1.0000   1.0000   1.0000   1.0000   1.0000   1.0000   1.0000   1.0000
     1.0000   1.0000   1.0000   1.0000   1.0000   1.0000   1.0000   1.0000
     1.0000   1.0000   1.0000   1.0000   1.0000   1.0000   1.0000   1.0000
     1.0000   1.0000   1.0000   1.0000   1.0000   1.0000   1.0000   1.0000
     1.0000   1.0000   1.0000   1.0000   1.0000   1.0000   1.0000   1.0000
     1.0000   1.0000   1.0000   1.0000   1.0000   1.0000   1.0000   1.0000
     1.0000   1.0000   1.0000   1.0000   1.0000   1.0000   1.0000   1.0000
     1.0000   1.0000   1.0000   1.0000   1.0000   1.0000   1.0000   1.0000
     1.0000   1.0000   1.0000   1.0000   1.0000   1.0000   1.0000   1.0000
     1.0000   1.0000   1.0000   1.0000   1.0000   1.0000   1.0000   1.0000
     1.0000   1.0000   1.0000   1.0000   1.0000   1.0000   1.0000   1.0000
     1.0000   1.0000   1.0000   1.0000   1.0000   1.0000   1.0000   1.0000
     1.0000   1.0000   1.0000   1.0000   1.0000   1.0000   1.0000   1.0000
     1.0000   1.0000   1.0000   1.0000   1.0000   1.0000   1.0000   1.0000
     1.0000   1.0000   1.0000   1.0000   1.0000   1.0000   1.0000   1.0000
     1.0000   1.0000   1.0000   1.0000   1.0000   1.0000   1.0000   1.0000
     1.0000   1.0000   1.0000   1.0000   1.0000   1.0000   1.0000   1.0000
     1.0000   1.0000   1.0000   1.0000   1.0000   1.0000   1.0000   1.0000
     1.0000   1.0000   1.0000   1.0000   1.0000   1.0000   1.0000   1.0000
     1.0000   1.0000   1.0000   1.0000   1.0000   1.0000   1.0000   1.0000
     1.0000   1.0000   1.0000   1.0000   1.0000   1.0000   1.0000   1.0000
     1.0000   1.0000   1.0000   1.0000   1.0000   1.0000   1.0000   1.0000
     1.0000   1.0000   1.0000   1.0000   1.0000   1.0000   1.0000   1.0000
     1.0000   1.0000   1.0000   1.0000   1.0000   1.0000   1.0000   1.0000
     1.0000   1.0000   1.0000   1.0000   1.0000   1.0000   1.0000   1.0000
     1.0000   1.0000   1.0000   1.0000   1.0000   1.0000   1.0000   1.0000
     1.0000   1.0000   1.0000   1.0000   1.0000   1.0000   1.0000   1.0000
     1.0000   1.0000   1.0000   1.0000   1.0000   1.0000   1.0000   1.0000
     1.0000   1.0000   1.0000   1.0000   1.0000   1.0000   1.0000   1.0000
     1.0000   1.0000   1.0000   1.0000   1.0000   1.0000   1.0000   1.0000
     1.0000   1.0000   1.0000   1.0000   1.0000   1.0000   1.0000   1.0000
     1.0000   1.0000   1.0000   1.0000   1.0000   1.0000   1.0000   1.0000
     1.0000   1.0000   1.0000   1.0000   1.0000   1.0000   1.0000   1.0000
     1.0000   1.0000   1.0000   1.0000   1.0000   1.0000   1.0000   1.0000
     1.0000   1.0000   1.0000   1.0000   1.0000   1.0000   1.0000   1.0000
     1.0000   1.0000   1.0000   1.0000   1.0000   1.0000   1.0000   1.0000
     1.0000   1.0000   1.0000   1.0000   1.0000   1.0000   1.0000   1.0000
     1.0000   1.0000   1.0000   1.0000   1.0000   1.0000   1.0000   1.0000
     1.0000   1.0000   1.0000   1.0000   1.0000   1.0000   1.0000   1.0000
     1.0000   1.0000   1.0000   1.0000   1.0000   1.0000   1.0000   1.0000
     1.0000   1.0000   1.0000   1.0000   1.0000   1.0000   1.0000   1.0000
     1.0000   1.0000   1.0000   1.0000   1.0000   1.0000   1.0000   1.0000
     1.0000   1.0000   1.0000   1.0000   1.0000   1.0000   1.0000   1.0000
     1.0000   1.0000   1.0000   1.0000   1.0000   1.0000   1.0000   1.0000
     1.0000   1.0000   1.0000   1.0000   1.0000   1.0000   1.0000   1.0000
     1.0000   1.0000   1.0000   1.0000   1.0000   1.0000   1.0000   1.0000
     1.0000   1.0000   1.0000   1.0000   1.0000   1.0000   1.0000   1.0000
     1.0000   1.0000   1.0000   1.0000   1.0000   1.0000   1.0000   1.0000
     1.0000   1.0000   1.0000   1.0000   1.0000   1.0000   1.0000   1.0000
     1.0000   1.0000   1.0000   1.0000   1.0000   1.0000   1.0000   1.0000
     1.0000   1.0000   1.0000   1.0000   1.0000   1.0000   1.0000   1.0000
     1.0000   1.0000   1.0000   1.0000   1.0000   1.0000   1.0000   1.0000
     1.0000   1.0000   1.0000   1.0000   1.0000   1.0000   1.0000   1.0000
     1.0150   1.0153   1.0344   1.0343  -0.0037  -0.0000  -0.0000  -0.0000
    -0.0000  -0.0000  -0.0000  -0.0000  -0.0000  -0.0000  -0.0000  -0.0000
    -0.0000  -0.0000  -0.0000  -0.0000  -0.0000  -0.0000  -0.0000  -0.0000
    -0.0000  -0.0000  -0.0000  -0.0000  -0.0000  -0.0000  -0.0000  -0.0000
    -0.0000  -0.0000  -0.0000  -0.0000  -0.0000  -0.0000  -0.0000  -0.0000
    -0.0000  -0.0000  -0.0000  -0.0000  -0.0000  -0.0000  -0.0000  -0.0000
    -0.0000  -0.0000  -0.0000  -0.0000  -0.0000  -0.0000  -0.0000  -0.0000
    -0.0000  -0.0000  -0.0000  -0.0000  -0.0000  -0.0000  -0.0000  -0.0000
    -0.0000  -0.0000  -0.0000  -0.0000  -0.0000  -0.0000  -0.0000  -0.0000
    -0.0000  -0.0000  -0.0000  -0.0000  -0.0000  -0.0000  -0.0000  -0.0000
    -0.0000  -0.0000  -0.0000  -0.0000  -0.0000  -0.0000  -0.0000  -0.0000
    -0.0000  -0.0000  -0.0000  -0.0000  -0.0000  -0.0000  -0.0000  -0.0000
    -0.0000  -0.0000  -0.0000  -0.0000  -0.0000  -0.0000  -0.0000  -0.0000
    -0.0000  -0.0000  -0.0000  -0.0000  -0.0000  -0.0000  -0.0000  -0.0000

          k = 0.5000-0.2887 0.2373 (554574 PWs)   bands (ev):

   -68.2859 -68.2855 -68.2851 -68.2849 -68.2847 -68.2846 -68.2846 -68.2846
   -68.2846 -68.2845 -68.2845 -68.2845 -68.2844 -68.2844 -68.2841 -68.2840
   -68.2838 -68.2835 -67.7455 -67.7452 -67.7450 -67.7447 -67.7445 -67.7444
   -67.7444 -67.7444 -67.7443 -67.7443 -67.7443 -67.7442 -67.7441 -67.7441
   -67.7441 -67.7441 -67.7440 -67.7440 -67.7439 -67.7438 -67.7438 -67.7437
   -67.7437 -67.7437 -67.7437 -67.7437 -67.7437 -67.7436 -67.7435 -67.7435
   -67.7435 -67.7434 -67.7434 -67.7433 -67.7433 -67.7428 -35.6969 -35.6966
   -35.6961 -35.6960 -35.6957 -35.6957 -35.6957 -35.6957 -35.6956 -35.6955
   -35.6955 -35.6955 -35.6955 -35.6954 -35.6952 -35.6950 -35.6949 -35.6946
   -35.6920 -35.6920 -35.6917 -35.6917 -35.6913 -35.6912 -35.6911 -35.6911
   -35.6908 -35.6908 -35.6908 -35.6908 -35.6908 -35.6908 -35.6907 -35.6907
   -35.6907 -35.6907 -35.6907 -35.6906 -35.6906 -35.6906 -35.6906 -35.6906
   -35.6906 -35.6905 -35.6905 -35.6905 -35.6903 -35.6903 -35.6902 -35.6901
   -35.6900 -35.6899 -35.6897 -35.6896 -35.1782 -35.1781 -35.1778 -35.1778
   -35.1777 -35.1777 -35.1775 -35.1775 -35.1775 -35.1775 -35.1774 -35.1774
   -35.1773 -35.1773 -35.1773 -35.1773 -35.1772 -35.1772 -35.1771 -35.1771
   -35.1771 -35.1770 -35.1770 -35.1770 -35.1770 -35.1770 -35.1770 -35.1770
   -35.1770 -35.1769 -35.1768 -35.1768 -35.1768 -35.1768 -35.1768 -35.1767
   -35.1762 -35.1761 -35.1760 -35.1760 -35.1759 -35.1758 -35.1758 -35.1758
   -35.1758 -35.1757 -35.1753 -35.1752 -35.1751 -35.1751 -35.1746 -35.1744
   -35.1743 -35.1743 -35.1712 -35.1710 -35.1709 -35.1708 -35.1708 -35.1707
   -35.1706 -35.1706 -35.1705 -35.1705 -35.1705 -35.1705 -35.1704 -35.1703
   -35.1703 -35.1703 -35.1703 -35.1703 -35.1702 -35.1702 -35.1702 -35.1701
   -35.1697 -35.1696 -35.1694 -35.1694 -35.1691 -35.1690 -35.1689 -35.1688
   -35.1687 -35.1687 -35.1686 -35.1686 -35.1686 -35.1686 -35.1685 -35.1685
   -35.1684 -35.1683 -35.1682 -35.1682 -35.1682 -35.1681 -35.1681 -35.1681
   -35.1681 -35.1681 -35.1681 -35.1680 -35.1680 -35.1680 -35.1680 -35.1676
   -14.2181 -14.2169 -14.2167 -14.2162 -14.2158 -14.2155 -14.2151 -14.2151
   -14.2150 -14.2148 -14.2147 -14.2146 -14.2144 -14.2143 -14.2141 -14.2139
   -14.2134 -14.2129 -14.2122 -14.2119 -14.2116 -14.2114 -14.2111 -14.2110
   -14.2106 -14.2105 -14.2105 -14.2104 -14.2103 -14.2102 -14.2101 -14.2099
   -14.2098 -14.2096 -14.2095 -14.2095 -14.2091 -14.2091 -14.2089 -14.2086
   -14.2084 -14.2084 -14.2083 -14.2082 -14.2081 -14.2080 -14.2079 -14.2079
   -14.2077 -14.2076 -14.2076 -14.2075 -14.2074 -14.2073 -14.2073 -14.2069
   -14.2067 -14.2063 -14.2063 -14.2062 -14.2059 -14.2057 -14.2051 -14.2050
   -14.2047 -14.2045 -14.2040 -14.2038 -14.2038 -14.2034 -14.2031 -14.2025
   -14.1900 -14.1884 -14.1880 -14.1877 -14.1877 -14.1874 -14.1873 -14.1869
   -14.1866 -14.1866 -14.1865 -14.1863 -14.1862 -14.1862 -14.1859 -14.1857
   -14.1856 -14.1855 -14.1854 -14.1853 -14.1852 -14.1849 -14.1846 -14.1845
   -14.1842 -14.1838 -14.1835 -14.1832 -14.1831 -14.1828 -14.1828 -14.1827
   -14.1826 -14.1822 -14.1820 -14.1806 -14.1746 -14.1744 -14.1736 -14.1735
   -14.1731 -14.1730 -14.1728 -14.1728 -14.1725 -14.1724 -14.1720 -14.1719
   -14.1717 -14.1716 -14.1715 -14.1713 -14.1711 -14.1709 -14.1707 -14.1707
   -14.1706 -14.1705 -14.1702 -14.1701 -14.1698 -14.1689 -14.1679 -14.1675
   -14.1674 -14.1672 -14.1670 -14.1667 -14.1666 -14.1665 -14.1663 -14.1662
   -14.1656 -14.1653 -14.1646 -14.1643 -14.1641 -14.1639 -14.1636 -14.1635
   -14.1632 -14.1631 -14.1625 -14.1622 -14.1618 -14.1615 -14.1613 -14.1608
   -14.1605 -14.1600 -14.1595 -14.1591 -14.1587 -14.1586 -14.1585 -14.1583
   -14.1583 -14.1581 -14.1580 -14.1578 -14.1577 -14.1575 -14.1572 -14.1571
   -14.1569 -14.1566 -14.1563 -14.1557  -3.5473  -3.5467  -3.3786  -3.3777
    -3.2746  -3.2744  -3.1311  -3.1309  -2.9442  -2.9431  -2.8967  -2.8964
    -2.8949  -2.8947  -2.8735  -2.8132  -2.8130  -2.8098  -2.8096  -2.7952
    -2.7829  -2.7827  -2.7053  -2.7045  -2.6470  -2.6400  -2.6397  -2.6361
    -2.6358  -2.6002  -2.6000  -2.5756  -2.5578  -2.5575  -2.5555  -2.5553
     2.9833   3.1461   3.2636   3.2638   3.3104   3.3226   3.3296   3.3297
     3.4257   3.4259   3.4784   3.4785   3.4847   3.6192   3.6194   3.6903
     3.6904   3.6918   3.6922   3.8176   3.8177   3.9698   4.0121   4.0132
     4.0703   4.0706   4.1144   4.1147   4.2047   4.2048   4.5111   4.5112
     4.6862   4.6863   4.7781   4.7782   4.8195   4.8196   4.8397   4.8694
     4.8696   4.8780   4.8781   4.9401   5.0464   5.0538   5.0541   5.1603
     5.1606   5.4184   5.4678   5.6244   5.6246   5.6341   5.6343   5.6749
     5.6750   5.7439   5.7582   5.7871   5.7873   5.9128   5.9129   5.9460
     5.9664   5.9827   6.0131   6.0333   6.0914   6.1841   6.1842   6.1977
     6.1977   6.2006   6.2009   6.2034   6.2036   6.3700   6.3702   6.3800
     6.3802   6.3895   6.3896   6.5379   6.5648   6.6647   6.7354   6.7592
     6.8095   6.8300   6.8326   6.8328   6.9131   7.0383   7.0385   7.0883
     7.0884   7.0917   7.0920   7.1695   7.2372   7.3060   7.3061   7.3444
     7.6372   7.6665   7.7073   7.7149   8.1103   8.2614   8.8836   8.8839
     8.9538   8.9539   9.0145   9.0147   9.1441   9.2012   9.2601   9.2602
     9.3140   9.3346   9.4984   9.4988   9.5048   9.6493   9.6631   9.6632
     9.6828   9.7317   9.7391   9.7392   9.9950  10.0623  10.1003  10.1005
    10.1212  10.1215  10.1241  10.1932  10.1934  10.2728  10.2732  10.4617
    10.4620  10.4829  10.4831  10.5848  10.5849  10.6290  10.6291  10.6365
    10.6379  10.6479  10.6480  10.7245  10.7246  10.7557  10.7559  10.7571
    10.7573  10.8788  10.8825  10.9121  10.9123  11.0199  11.0219  11.0222
    11.0299  11.0467  11.0946  11.1420  11.1421  11.2233  11.3120  11.3537
    11.3539  11.3668  11.4252  11.4562  11.4563  11.4570  11.4572  11.4934
    11.4937  11.5193  11.5590  11.5592  11.5866  11.6682  11.7480  11.7849
    11.7934  11.9814  11.9972  12.0196  12.0199  12.1007  12.2391  12.2392
    12.2957  12.2971  12.2973  12.3262  12.3264  12.3472  12.3474  12.3720
    12.3723  12.3902  12.4336  12.5249  12.5307  12.5861  12.6541  12.7083

     occupation numbers 
     1.0000   1.0000   1.0000   1.0000   1.0000   1.0000   1.0000   1.0000
     1.0000   1.0000   1.0000   1.0000   1.0000   1.0000   1.0000   1.0000
     1.0000   1.0000   1.0000   1.0000   1.0000   1.0000   1.0000   1.0000
     1.0000   1.0000   1.0000   1.0000   1.0000   1.0000   1.0000   1.0000
     1.0000   1.0000   1.0000   1.0000   1.0000   1.0000   1.0000   1.0000
     1.0000   1.0000   1.0000   1.0000   1.0000   1.0000   1.0000   1.0000
     1.0000   1.0000   1.0000   1.0000   1.0000   1.0000   1.0000   1.0000
     1.0000   1.0000   1.0000   1.0000   1.0000   1.0000   1.0000   1.0000
     1.0000   1.0000   1.0000   1.0000   1.0000   1.0000   1.0000   1.0000
     1.0000   1.0000   1.0000   1.0000   1.0000   1.0000   1.0000   1.0000
     1.0000   1.0000   1.0000   1.0000   1.0000   1.0000   1.0000   1.0000
     1.0000   1.0000   1.0000   1.0000   1.0000   1.0000   1.0000   1.0000
     1.0000   1.0000   1.0000   1.0000   1.0000   1.0000   1.0000   1.0000
     1.0000   1.0000   1.0000   1.0000   1.0000   1.0000   1.0000   1.0000
     1.0000   1.0000   1.0000   1.0000   1.0000   1.0000   1.0000   1.0000
     1.0000   1.0000   1.0000   1.0000   1.0000   1.0000   1.0000   1.0000
     1.0000   1.0000   1.0000   1.0000   1.0000   1.0000   1.0000   1.0000
     1.0000   1.0000   1.0000   1.0000   1.0000   1.0000   1.0000   1.0000
     1.0000   1.0000   1.0000   1.0000   1.0000   1.0000   1.0000   1.0000
     1.0000   1.0000   1.0000   1.0000   1.0000   1.0000   1.0000   1.0000
     1.0000   1.0000   1.0000   1.0000   1.0000   1.0000   1.0000   1.0000
     1.0000   1.0000   1.0000   1.0000   1.0000   1.0000   1.0000   1.0000
     1.0000   1.0000   1.0000   1.0000   1.0000   1.0000   1.0000   1.0000
     1.0000   1.0000   1.0000   1.0000   1.0000   1.0000   1.0000   1.0000
     1.0000   1.0000   1.0000   1.0000   1.0000   1.0000   1.0000   1.0000
     1.0000   1.0000   1.0000   1.0000   1.0000   1.0000   1.0000   1.0000
     1.0000   1.0000   1.0000   1.0000   1.0000   1.0000   1.0000   1.0000
     1.0000   1.0000   1.0000   1.0000   1.0000   1.0000   1.0000   1.0000
     1.0000   1.0000   1.0000   1.0000   1.0000   1.0000   1.0000   1.0000
     1.0000   1.0000   1.0000   1.0000   1.0000   1.0000   1.0000   1.0000
     1.0000   1.0000   1.0000   1.0000   1.0000   1.0000   1.0000   1.0000
     1.0000   1.0000   1.0000   1.0000   1.0000   1.0000   1.0000   1.0000
     1.0000   1.0000   1.0000   1.0000   1.0000   1.0000   1.0000   1.0000
     1.0000   1.0000   1.0000   1.0000   1.0000   1.0000   1.0000   1.0000
     1.0000   1.0000   1.0000   1.0000   1.0000   1.0000   1.0000   1.0000
     1.0000   1.0000   1.0000   1.0000   1.0000   1.0000   1.0000   1.0000
     1.0000   1.0000   1.0000   1.0000   1.0000   1.0000   1.0000   1.0000
     1.0000   1.0000   1.0000   1.0000   1.0000   1.0000   1.0000   1.0000
     1.0000   1.0000   1.0000   1.0000   1.0000   1.0000   1.0000   1.0000
     1.0000   1.0000   1.0000   1.0000   1.0000   1.0000   1.0000   1.0000
     1.0000   1.0000   1.0000   1.0000   1.0000   1.0000   1.0000   1.0000
     1.0000   1.0000   1.0000   1.0000   1.0000   1.0000   1.0000   1.0000
     1.0000   1.0000   1.0000   1.0000   1.0000   1.0000   1.0000   1.0000
     1.0000   1.0000   1.0000   1.0000   1.0000   1.0000   1.0000   1.0000
     1.0000   1.0000   1.0000   1.0000   1.0000   1.0000   1.0000   1.0000
     1.0000   1.0000   1.0000   1.0000   1.0000   1.0000   1.0000   1.0000
     1.0000   1.0000   1.0000   1.0000   1.0000   1.0000   1.0000   1.0000
     1.0000   1.0000   1.0000   1.0000   1.0000   1.0000   1.0000   1.0000
     1.0000   1.0000   1.0000   1.0000   1.0000   1.0000   1.0000   1.0000
     1.0000   1.0000   1.0000   1.0000   1.0000   1.0000   1.0000   1.0000
     1.0000   1.0000   1.0000   1.0000   1.0000   1.0000   1.0000   1.0000
     1.0000   1.0000   1.0000   1.0000   1.0000   1.0000   1.0000   1.0000
     1.0000   1.0000   1.0000   1.0000   1.0000   1.0000   1.0000   1.0000
     1.0000   1.0000   1.0000   1.0000   1.0000   1.0000   1.0000   1.0000
     1.0000   1.0000   1.0000   1.0000   1.0000   1.0000   1.0000   1.0000
     1.0000   1.0000   1.0000   1.0000   1.0000   1.0000   1.0000   1.0000
     1.0000   1.0000   1.0000   1.0000   1.0000   1.0000   1.0000   1.0000
     1.0000   1.0000   1.0000   1.0000   1.0000   1.0000   1.0000   1.0000
     1.0000   1.0000   1.0000   1.0000   1.0000   1.0000   1.0000   1.0000
     1.0000   1.0000   1.0000   1.0000   1.0000   1.0000   1.0000   1.0000
     1.0000   1.0000   1.0000   1.0000   1.0000   1.0000   1.0000   1.0000
     1.0000   1.0000   1.0000   1.0000   1.0000   1.0000   1.0000   1.0000
     1.0000   1.0000   1.0000   1.0000   1.0000   1.0000   1.0000   1.0000
     1.0000   1.0000   1.0000   1.0000   1.0000   1.0000   1.0000   1.0000
     1.0000   1.0000   1.0000   1.0000   1.0000   1.0000   1.0000   1.0000
     1.0000   1.0000   1.0000   1.0000   1.0000   1.0000   1.0000   1.0000
     1.0000   1.0000   1.0000   1.0000   1.0000   1.0000   1.0000   1.0000
     1.0011   1.0028   1.0083   1.0098  -0.0220  -0.0061  -0.0000  -0.0000
    -0.0000  -0.0000  -0.0000  -0.0000  -0.0000  -0.0000  -0.0000  -0.0000
    -0.0000  -0.0000  -0.0000  -0.0000  -0.0000  -0.0000  -0.0000  -0.0000
    -0.0000  -0.0000  -0.0000  -0.0000  -0.0000  -0.0000  -0.0000  -0.0000
    -0.0000  -0.0000  -0.0000  -0.0000  -0.0000  -0.0000  -0.0000  -0.0000
    -0.0000  -0.0000  -0.0000  -0.0000  -0.0000  -0.0000  -0.0000  -0.0000
    -0.0000  -0.0000  -0.0000  -0.0000  -0.0000  -0.0000  -0.0000  -0.0000
    -0.0000  -0.0000  -0.0000  -0.0000  -0.0000  -0.0000  -0.0000  -0.0000
    -0.0000  -0.0000  -0.0000  -0.0000  -0.0000  -0.0000  -0.0000  -0.0000
    -0.0000  -0.0000  -0.0000  -0.0000  -0.0000  -0.0000  -0.0000  -0.0000
    -0.0000  -0.0000  -0.0000  -0.0000  -0.0000  -0.0000  -0.0000  -0.0000
    -0.0000  -0.0000  -0.0000  -0.0000  -0.0000  -0.0000  -0.0000  -0.0000
    -0.0000  -0.0000  -0.0000  -0.0000  -0.0000  -0.0000  -0.0000  -0.0000
    -0.0000  -0.0000  -0.0000  -0.0000  -0.0000  -0.0000  -0.0000  -0.0000

          k =-0.5000-0.2887 0.2373 (554574 PWs)   bands (ev):

   -68.2859 -68.2855 -68.2851 -68.2849 -68.2847 -68.2846 -68.2846 -68.2846
   -68.2846 -68.2845 -68.2845 -68.2845 -68.2844 -68.2844 -68.2841 -68.2840
   -68.2838 -68.2835 -67.7455 -67.7452 -67.7450 -67.7447 -67.7445 -67.7444
   -67.7444 -67.7444 -67.7443 -67.7443 -67.7442 -67.7442 -67.7441 -67.7441
   -67.7441 -67.7440 -67.7440 -67.7440 -67.7439 -67.7438 -67.7438 -67.7437
   -67.7437 -67.7437 -67.7437 -67.7436 -67.7436 -67.7436 -67.7436 -67.7435
   -67.7434 -67.7434 -67.7434 -67.7433 -67.7433 -67.7428 -35.6969 -35.6966
   -35.6961 -35.6960 -35.6957 -35.6957 -35.6957 -35.6957 -35.6956 -35.6955
   -35.6955 -35.6955 -35.6955 -35.6954 -35.6952 -35.6950 -35.6949 -35.6946
   -35.6920 -35.6920 -35.6917 -35.6917 -35.6913 -35.6912 -35.6911 -35.6911
   -35.6908 -35.6908 -35.6908 -35.6908 -35.6908 -35.6908 -35.6907 -35.6907
   -35.6907 -35.6907 -35.6907 -35.6906 -35.6906 -35.6906 -35.6906 -35.6906
   -35.6906 -35.6906 -35.6905 -35.6905 -35.6903 -35.6903 -35.6902 -35.6901
   -35.6900 -35.6899 -35.6897 -35.6896 -35.1781 -35.1781 -35.1779 -35.1778
   -35.1777 -35.1777 -35.1775 -35.1775 -35.1775 -35.1775 -35.1775 -35.1774
   -35.1773 -35.1773 -35.1773 -35.1773 -35.1772 -35.1772 -35.1772 -35.1771
   -35.1771 -35.1771 -35.1770 -35.1770 -35.1770 -35.1770 -35.1770 -35.1770
   -35.1769 -35.1769 -35.1768 -35.1768 -35.1768 -35.1768 -35.1768 -35.1767
   -35.1762 -35.1761 -35.1760 -35.1759 -35.1759 -35.1759 -35.1758 -35.1758
   -35.1758 -35.1757 -35.1753 -35.1753 -35.1751 -35.1751 -35.1746 -35.1744
   -35.1743 -35.1743 -35.1712 -35.1710 -35.1709 -35.1708 -35.1708 -35.1707
   -35.1706 -35.1706 -35.1705 -35.1705 -35.1705 -35.1704 -35.1704 -35.1703
   -35.1703 -35.1703 -35.1703 -35.1702 -35.1702 -35.1702 -35.1702 -35.1702
   -35.1697 -35.1696 -35.1694 -35.1694 -35.1692 -35.1690 -35.1688 -35.1688
   -35.1687 -35.1687 -35.1687 -35.1686 -35.1686 -35.1686 -35.1685 -35.1684
   -35.1684 -35.1683 -35.1683 -35.1682 -35.1682 -35.1681 -35.1681 -35.1681
   -35.1681 -35.1681 -35.1681 -35.1680 -35.1680 -35.1680 -35.1680 -35.1676
   -14.2180 -14.2173 -14.2167 -14.2161 -14.2158 -14.2156 -14.2151 -14.2151
   -14.2149 -14.2148 -14.2147 -14.2146 -14.2145 -14.2143 -14.2140 -14.2138
   -14.2135 -14.2129 -14.2125 -14.2117 -14.2116 -14.2114 -14.2111 -14.2110
   -14.2107 -14.2105 -14.2105 -14.2105 -14.2103 -14.2102 -14.2101 -14.2099
   -14.2098 -14.2097 -14.2096 -14.2093 -14.2092 -14.2090 -14.2087 -14.2086
   -14.2084 -14.2084 -14.2083 -14.2082 -14.2081 -14.2079 -14.2079 -14.2078
   -14.2078 -14.2077 -14.2076 -14.2076 -14.2074 -14.2073 -14.2071 -14.2070
   -14.2067 -14.2064 -14.2062 -14.2062 -14.2058 -14.2057 -14.2051 -14.2050
   -14.2047 -14.2044 -14.2041 -14.2038 -14.2037 -14.2035 -14.2029 -14.2026
   -14.1900 -14.1883 -14.1880 -14.1878 -14.1877 -14.1874 -14.1873 -14.1868
   -14.1866 -14.1866 -14.1864 -14.1863 -14.1863 -14.1862 -14.1859 -14.1856
   -14.1856 -14.1855 -14.1855 -14.1854 -14.1852 -14.1849 -14.1847 -14.1844
   -14.1841 -14.1838 -14.1833 -14.1832 -14.1830 -14.1828 -14.1828 -14.1827
   -14.1826 -14.1823 -14.1820 -14.1806 -14.1746 -14.1745 -14.1734 -14.1733
   -14.1731 -14.1730 -14.1729 -14.1728 -14.1727 -14.1724 -14.1722 -14.1720
   -14.1717 -14.1716 -14.1715 -14.1714 -14.1710 -14.1709 -14.1707 -14.1707
   -14.1704 -14.1704 -14.1703 -14.1701 -14.1696 -14.1689 -14.1679 -14.1674
   -14.1673 -14.1671 -14.1671 -14.1667 -14.1666 -14.1665 -14.1663 -14.1663
   -14.1656 -14.1653 -14.1647 -14.1644 -14.1640 -14.1640 -14.1635 -14.1635
   -14.1633 -14.1631 -14.1624 -14.1621 -14.1618 -14.1615 -14.1613 -14.1607
   -14.1604 -14.1601 -14.1597 -14.1589 -14.1589 -14.1586 -14.1585 -14.1584
   -14.1582 -14.1581 -14.1579 -14.1578 -14.1577 -14.1576 -14.1572 -14.1571
   -14.1570 -14.1566 -14.1564 -14.1556  -3.5473  -3.5467  -3.3786  -3.3777
    -3.2747  -3.2742  -3.1313  -3.1308  -2.9442  -2.9431  -2.8968  -2.8962
    -2.8951  -2.8946  -2.8735  -2.8133  -2.8128  -2.8100  -2.8095  -2.7952
    -2.7831  -2.7825  -2.7053  -2.7045  -2.6469  -2.6401  -2.6395  -2.6363
    -2.6357  -2.6004  -2.5998  -2.5756  -2.5579  -2.5573  -2.5557  -2.5552
     2.9834   3.1462   3.2637   3.2638   3.3104   3.3226   3.3296   3.3297
     3.4256   3.4259   3.4783   3.4786   3.4850   3.6191   3.6193   3.6902
     3.6907   3.6917   3.6920   3.8175   3.8177   3.9697   4.0123   4.0134
     4.0703   4.0705   4.1145   4.1147   4.2045   4.2047   4.5107   4.5111
     4.6860   4.6863   4.7776   4.7781   4.8195   4.8197   4.8395   4.8693
     4.8695   4.8781   4.8783   4.9401   5.0466   5.0537   5.0540   5.1605
     5.1607   5.4185   5.4681   5.6245   5.6247   5.6340   5.6343   5.6747
     5.6749   5.7438   5.7580   5.7872   5.7876   5.9128   5.9133   5.9463
     5.9666   5.9831   6.0129   6.0336   6.0915   6.1840   6.1841   6.1977
     6.1978   6.2005   6.2008   6.2034   6.2041   6.3700   6.3703   6.3799
     6.3802   6.3896   6.3900   6.5377   6.5646   6.6645   6.7355   6.7589
     6.8097   6.8298   6.8329   6.8332   6.9131   7.0382   7.0385   7.0882
     7.0887   7.0916   7.0920   7.1693   7.2369   7.3056   7.3062   7.3441
     7.6369   7.6666   7.7070   7.7149   8.1104   8.2612   8.8837   8.8838
     8.9538   8.9539   9.0145   9.0147   9.1439   9.2012   9.2599   9.2602
     9.3137   9.3345   9.4986   9.4986   9.5048   9.6493   9.6632   9.6635
     9.6827   9.7316   9.7390   9.7390   9.9953  10.0621  10.1004  10.1007
    10.1214  10.1216  10.1239  10.1930  10.1933  10.2728  10.2731  10.4620
    10.4622  10.4827  10.4832  10.5846  10.5851  10.6291  10.6293  10.6363
    10.6377  10.6480  10.6484  10.7243  10.7246  10.7558  10.7559  10.7571
    10.7573  10.8788  10.8826  10.9120  10.9127  11.0197  11.0219  11.0222
    11.0300  11.0466  11.0947  11.1421  11.1425  11.2231  11.3119  11.3536
    11.3539  11.3669  11.4251  11.4562  11.4562  11.4573  11.4575  11.4933
    11.4935  11.5195  11.5591  11.5593  11.5867  11.6682  11.7477  11.7845
    11.7935  11.9814  11.9970  12.0201  12.0202  12.1006  12.2393  12.2394
    12.2957  12.2968  12.2973  12.3263  12.3264  12.3472  12.3476  12.3719
    12.3722  12.3905  12.4336  12.5253  12.5307  12.5866  12.6542  12.7083

     occupation numbers 
     1.0000   1.0000   1.0000   1.0000   1.0000   1.0000   1.0000   1.0000
     1.0000   1.0000   1.0000   1.0000   1.0000   1.0000   1.0000   1.0000
     1.0000   1.0000   1.0000   1.0000   1.0000   1.0000   1.0000   1.0000
     1.0000   1.0000   1.0000   1.0000   1.0000   1.0000   1.0000   1.0000
     1.0000   1.0000   1.0000   1.0000   1.0000   1.0000   1.0000   1.0000
     1.0000   1.0000   1.0000   1.0000   1.0000   1.0000   1.0000   1.0000
     1.0000   1.0000   1.0000   1.0000   1.0000   1.0000   1.0000   1.0000
     1.0000   1.0000   1.0000   1.0000   1.0000   1.0000   1.0000   1.0000
     1.0000   1.0000   1.0000   1.0000   1.0000   1.0000   1.0000   1.0000
     1.0000   1.0000   1.0000   1.0000   1.0000   1.0000   1.0000   1.0000
     1.0000   1.0000   1.0000   1.0000   1.0000   1.0000   1.0000   1.0000
     1.0000   1.0000   1.0000   1.0000   1.0000   1.0000   1.0000   1.0000
     1.0000   1.0000   1.0000   1.0000   1.0000   1.0000   1.0000   1.0000
     1.0000   1.0000   1.0000   1.0000   1.0000   1.0000   1.0000   1.0000
     1.0000   1.0000   1.0000   1.0000   1.0000   1.0000   1.0000   1.0000
     1.0000   1.0000   1.0000   1.0000   1.0000   1.0000   1.0000   1.0000
     1.0000   1.0000   1.0000   1.0000   1.0000   1.0000   1.0000   1.0000
     1.0000   1.0000   1.0000   1.0000   1.0000   1.0000   1.0000   1.0000
     1.0000   1.0000   1.0000   1.0000   1.0000   1.0000   1.0000   1.0000
     1.0000   1.0000   1.0000   1.0000   1.0000   1.0000   1.0000   1.0000
     1.0000   1.0000   1.0000   1.0000   1.0000   1.0000   1.0000   1.0000
     1.0000   1.0000   1.0000   1.0000   1.0000   1.0000   1.0000   1.0000
     1.0000   1.0000   1.0000   1.0000   1.0000   1.0000   1.0000   1.0000
     1.0000   1.0000   1.0000   1.0000   1.0000   1.0000   1.0000   1.0000
     1.0000   1.0000   1.0000   1.0000   1.0000   1.0000   1.0000   1.0000
     1.0000   1.0000   1.0000   1.0000   1.0000   1.0000   1.0000   1.0000
     1.0000   1.0000   1.0000   1.0000   1.0000   1.0000   1.0000   1.0000
     1.0000   1.0000   1.0000   1.0000   1.0000   1.0000   1.0000   1.0000
     1.0000   1.0000   1.0000   1.0000   1.0000   1.0000   1.0000   1.0000
     1.0000   1.0000   1.0000   1.0000   1.0000   1.0000   1.0000   1.0000
     1.0000   1.0000   1.0000   1.0000   1.0000   1.0000   1.0000   1.0000
     1.0000   1.0000   1.0000   1.0000   1.0000   1.0000   1.0000   1.0000
     1.0000   1.0000   1.0000   1.0000   1.0000   1.0000   1.0000   1.0000
     1.0000   1.0000   1.0000   1.0000   1.0000   1.0000   1.0000   1.0000
     1.0000   1.0000   1.0000   1.0000   1.0000   1.0000   1.0000   1.0000
     1.0000   1.0000   1.0000   1.0000   1.0000   1.0000   1.0000   1.0000
     1.0000   1.0000   1.0000   1.0000   1.0000   1.0000   1.0000   1.0000
     1.0000   1.0000   1.0000   1.0000   1.0000   1.0000   1.0000   1.0000
     1.0000   1.0000   1.0000   1.0000   1.0000   1.0000   1.0000   1.0000
     1.0000   1.0000   1.0000   1.0000   1.0000   1.0000   1.0000   1.0000
     1.0000   1.0000   1.0000   1.0000   1.0000   1.0000   1.0000   1.0000
     1.0000   1.0000   1.0000   1.0000   1.0000   1.0000   1.0000   1.0000
     1.0000   1.0000   1.0000   1.0000   1.0000   1.0000   1.0000   1.0000
     1.0000   1.0000   1.0000   1.0000   1.0000   1.0000   1.0000   1.0000
     1.0000   1.0000   1.0000   1.0000   1.0000   1.0000   1.0000   1.0000
     1.0000   1.0000   1.0000   1.0000   1.0000   1.0000   1.0000   1.0000
     1.0000   1.0000   1.0000   1.0000   1.0000   1.0000   1.0000   1.0000
     1.0000   1.0000   1.0000   1.0000   1.0000   1.0000   1.0000   1.0000
     1.0000   1.0000   1.0000   1.0000   1.0000   1.0000   1.0000   1.0000
     1.0000   1.0000   1.0000   1.0000   1.0000   1.0000   1.0000   1.0000
     1.0000   1.0000   1.0000   1.0000   1.0000   1.0000   1.0000   1.0000
     1.0000   1.0000   1.0000   1.0000   1.0000   1.0000   1.0000   1.0000
     1.0000   1.0000   1.0000   1.0000   1.0000   1.0000   1.0000   1.0000
     1.0000   1.0000   1.0000   1.0000   1.0000   1.0000   1.0000   1.0000
     1.0000   1.0000   1.0000   1.0000   1.0000   1.0000   1.0000   1.0000
     1.0000   1.0000   1.0000   1.0000   1.0000   1.0000   1.0000   1.0000
     1.0000   1.0000   1.0000   1.0000   1.0000   1.0000   1.0000   1.0000
     1.0000   1.0000   1.0000   1.0000   1.0000   1.0000   1.0000   1.0000
     1.0000   1.0000   1.0000   1.0000   1.0000   1.0000   1.0000   1.0000
     1.0000   1.0000   1.0000   1.0000   1.0000   1.0000   1.0000   1.0000
     1.0000   1.0000   1.0000   1.0000   1.0000   1.0000   1.0000   1.0000
     1.0000   1.0000   1.0000   1.0000   1.0000   1.0000   1.0000   1.0000
     1.0000   1.0000   1.0000   1.0000   1.0000   1.0000   1.0000   1.0000
     1.0000   1.0000   1.0000   1.0000   1.0000   1.0000   1.0000   1.0000
     1.0000   1.0000   1.0000   1.0000   1.0000   1.0000   1.0000   1.0000
     1.0000   1.0000   1.0000   1.0000   1.0000   1.0000   1.0000   1.0000
     1.0000   1.0000   1.0000   1.0000   1.0000   1.0000   1.0000   1.0000
     1.0011   1.0028   1.0082   1.0098  -0.0221  -0.0061  -0.0000  -0.0000
    -0.0000  -0.0000  -0.0000  -0.0000  -0.0000  -0.0000  -0.0000  -0.0000
    -0.0000  -0.0000  -0.0000  -0.0000  -0.0000  -0.0000  -0.0000  -0.0000
    -0.0000  -0.0000  -0.0000  -0.0000  -0.0000  -0.0000  -0.0000  -0.0000
    -0.0000  -0.0000  -0.0000  -0.0000  -0.0000  -0.0000  -0.0000  -0.0000
    -0.0000  -0.0000  -0.0000  -0.0000  -0.0000  -0.0000  -0.0000  -0.0000
    -0.0000  -0.0000  -0.0000  -0.0000  -0.0000  -0.0000  -0.0000  -0.0000
    -0.0000  -0.0000  -0.0000  -0.0000  -0.0000  -0.0000  -0.0000  -0.0000
    -0.0000  -0.0000  -0.0000  -0.0000  -0.0000  -0.0000  -0.0000  -0.0000
    -0.0000  -0.0000  -0.0000  -0.0000  -0.0000  -0.0000  -0.0000  -0.0000
    -0.0000  -0.0000  -0.0000  -0.0000  -0.0000  -0.0000  -0.0000  -0.0000
    -0.0000  -0.0000  -0.0000  -0.0000  -0.0000  -0.0000  -0.0000  -0.0000
    -0.0000  -0.0000  -0.0000  -0.0000  -0.0000  -0.0000  -0.0000  -0.0000
    -0.0000  -0.0000  -0.0000  -0.0000  -0.0000  -0.0000  -0.0000  -0.0000

          k = 0.5000-0.2887-0.4746 (554528 PWs)   bands (ev):

   -68.2859 -68.2855 -68.2851 -68.2849 -68.2847 -68.2846 -68.2846 -68.2846
   -68.2846 -68.2845 -68.2845 -68.2845 -68.2844 -68.2844 -68.2841 -68.2840
   -68.2838 -68.2835 -67.7455 -67.7452 -67.7450 -67.7447 -67.7445 -67.7444
   -67.7444 -67.7444 -67.7443 -67.7443 -67.7443 -67.7442 -67.7441 -67.7441
   -67.7441 -67.7441 -67.7440 -67.7440 -67.7439 -67.7438 -67.7438 -67.7437
   -67.7437 -67.7437 -67.7437 -67.7437 -67.7437 -67.7436 -67.7435 -67.7435
   -67.7435 -67.7434 -67.7434 -67.7433 -67.7433 -67.7428 -35.6969 -35.6966
   -35.6961 -35.6960 -35.6957 -35.6957 -35.6957 -35.6957 -35.6956 -35.6955
   -35.6955 -35.6955 -35.6955 -35.6954 -35.6952 -35.6950 -35.6949 -35.6946
   -35.6920 -35.6920 -35.6917 -35.6917 -35.6913 -35.6912 -35.6911 -35.6911
   -35.6908 -35.6908 -35.6908 -35.6908 -35.6908 -35.6908 -35.6907 -35.6907
   -35.6907 -35.6907 -35.6907 -35.6906 -35.6906 -35.6906 -35.6906 -35.6906
   -35.6906 -35.6905 -35.6905 -35.6905 -35.6903 -35.6903 -35.6902 -35.6901
   -35.6900 -35.6899 -35.6897 -35.6896 -35.1782 -35.1781 -35.1778 -35.1778
   -35.1777 -35.1777 -35.1775 -35.1775 -35.1775 -35.1775 -35.1774 -35.1774
   -35.1773 -35.1773 -35.1773 -35.1773 -35.1772 -35.1772 -35.1771 -35.1771
   -35.1771 -35.1770 -35.1770 -35.1770 -35.1770 -35.1770 -35.1770 -35.1770
   -35.1770 -35.1769 -35.1768 -35.1768 -35.1768 -35.1768 -35.1768 -35.1767
   -35.1762 -35.1761 -35.1760 -35.1760 -35.1759 -35.1758 -35.1758 -35.1758
   -35.1758 -35.1757 -35.1753 -35.1752 -35.1751 -35.1751 -35.1746 -35.1744
   -35.1743 -35.1743 -35.1712 -35.1710 -35.1709 -35.1708 -35.1708 -35.1707
   -35.1706 -35.1706 -35.1705 -35.1705 -35.1705 -35.1705 -35.1704 -35.1703
   -35.1703 -35.1703 -35.1703 -35.1703 -35.1702 -35.1702 -35.1702 -35.1701
   -35.1697 -35.1696 -35.1694 -35.1694 -35.1691 -35.1690 -35.1689 -35.1688
   -35.1687 -35.1687 -35.1686 -35.1686 -35.1686 -35.1686 -35.1685 -35.1685
   -35.1684 -35.1683 -35.1682 -35.1682 -35.1682 -35.1681 -35.1681 -35.1681
   -35.1681 -35.1681 -35.1681 -35.1680 -35.1680 -35.1680 -35.1680 -35.1676
   -14.2181 -14.2169 -14.2167 -14.2163 -14.2157 -14.2154 -14.2152 -14.2150
   -14.2150 -14.2149 -14.2148 -14.2147 -14.2145 -14.2143 -14.2143 -14.2140
   -14.2132 -14.2130 -14.2123 -14.2119 -14.2116 -14.2113 -14.2109 -14.2107
   -14.2106 -14.2106 -14.2105 -14.2104 -14.2102 -14.2102 -14.2101 -14.2098
   -14.2096 -14.2096 -14.2095 -14.2094 -14.2092 -14.2092 -14.2091 -14.2087
   -14.2084 -14.2082 -14.2082 -14.2082 -14.2081 -14.2080 -14.2080 -14.2080
   -14.2079 -14.2078 -14.2078 -14.2077 -14.2076 -14.2075 -14.2074 -14.2069
   -14.2067 -14.2063 -14.2062 -14.2061 -14.2058 -14.2057 -14.2049 -14.2046
   -14.2045 -14.2043 -14.2041 -14.2039 -14.2037 -14.2035 -14.2032 -14.2027
   -14.1900 -14.1883 -14.1880 -14.1878 -14.1877 -14.1874 -14.1871 -14.1868
   -14.1867 -14.1866 -14.1866 -14.1863 -14.1862 -14.1860 -14.1858 -14.1858
   -14.1857 -14.1857 -14.1854 -14.1854 -14.1853 -14.1848 -14.1846 -14.1844
   -14.1842 -14.1838 -14.1835 -14.1832 -14.1830 -14.1828 -14.1827 -14.1827
   -14.1826 -14.1821 -14.1821 -14.1806 -14.1746 -14.1744 -14.1736 -14.1735
   -14.1731 -14.1730 -14.1728 -14.1727 -14.1725 -14.1723 -14.1720 -14.1718
   -14.1718 -14.1715 -14.1713 -14.1711 -14.1710 -14.1710 -14.1709 -14.1708
   -14.1707 -14.1705 -14.1703 -14.1701 -14.1697 -14.1690 -14.1679 -14.1674
   -14.1673 -14.1672 -14.1669 -14.1669 -14.1666 -14.1664 -14.1663 -14.1663
   -14.1655 -14.1653 -14.1647 -14.1643 -14.1642 -14.1640 -14.1635 -14.1634
   -14.1632 -14.1631 -14.1625 -14.1622 -14.1618 -14.1615 -14.1614 -14.1609
   -14.1604 -14.1600 -14.1595 -14.1591 -14.1587 -14.1585 -14.1583 -14.1583
   -14.1581 -14.1579 -14.1579 -14.1578 -14.1577 -14.1575 -14.1574 -14.1573
   -14.1570 -14.1566 -14.1563 -14.1559  -3.4781  -3.4774  -3.4769  -3.4764
    -3.2158  -3.2150  -3.2147  -3.2143  -2.8623  -2.8618  -2.8616  -2.8614
    -2.8591  -2.8588  -2.8587  -2.8579  -2.8410  -2.8402  -2.8112  -2.8106
    -2.8098  -2.8092  -2.6803  -2.6795  -2.6793  -2.6787  -2.6054  -2.6045
    -2.5931  -2.5924  -2.5923  -2.5918  -2.5888  -2.5887  -2.5885  -2.5883
     3.0437   3.0448   3.3182   3.3185   3.3190   3.3193   3.3962   3.3965
     3.3969   3.3970   3.5756   3.5766   3.6021   3.6024   3.7188   3.7191
     3.7194   3.7200   3.7249   3.7260   3.8096   3.8101   3.8104   3.8107
     3.8947   3.8952   3.8956   3.8957   4.3936   4.3939   4.3941   4.3943
     4.7769   4.7770   4.7773   4.7777   4.8173   4.8176   4.8177   4.8178
     5.1586   5.1588   5.1590   5.1591   5.2399   5.2405   5.3061   5.3064
     5.4482   5.4485   5.5437   5.5441   5.5443   5.5448   5.5491   5.5497
     5.5498   5.5501   5.7814   5.7819   5.7904   5.7908   5.7915   5.7917
     5.8509   5.8517   5.8985   5.8989   5.9368   5.9369   5.9370   5.9372
     5.9586   5.9588   5.9589   5.9592   6.5060   6.5064   6.6127   6.6133
     6.6141   6.6144   6.6211   6.6216   6.6737   6.6740   6.7992   6.7994
     6.7997   6.7999   6.8192   6.8196   6.8199   6.8206   6.9365   6.9373
     7.2862   7.2863   7.3786   7.3792   7.3809   7.3810   7.3814   7.3820
     7.4508   7.4508   7.5590   7.5593   8.1257   8.1261   9.0311   9.0312
     9.0317   9.0319   9.0739   9.0739   9.1607   9.1608   9.2620   9.2621
     9.2624   9.2627   9.4776   9.4778   9.4779   9.4783   9.5652   9.5654
     9.9644   9.9645  10.0610  10.0614  10.1398  10.1400  10.1402  10.1405
    10.1756  10.1757  10.1758  10.1762  10.2080  10.2085  10.2086  10.2092
    10.2803  10.2806  10.2807  10.2808  10.4242  10.4243  10.4245  10.4246
    10.6648  10.6650  10.6651  10.6652  10.6861  10.6862  10.7727  10.7731
    10.9391  10.9393  10.9394  10.9400  11.1128  11.1132  11.1259  11.1263
    11.1267  11.1270  11.1978  11.1989  11.2372  11.2373  11.3355  11.3357
    11.4380  11.4382  11.4686  11.4688  11.4690  11.4692  11.4747  11.4753
    11.4791  11.4791  11.4792  11.4797  11.6201  11.6202  11.7422  11.7427
    11.7738  11.7743  11.8551  11.8556  11.8559  11.8561  12.0507  12.0509
    12.0572  12.0577  12.0579  12.0580  12.1865  12.1871  12.1872  12.1874
    12.4678  12.4689  12.6120  12.6124  12.7254  12.7256  12.7423  12.7428

     occupation numbers 
     1.0000   1.0000   1.0000   1.0000   1.0000   1.0000   1.0000   1.0000
     1.0000   1.0000   1.0000   1.0000   1.0000   1.0000   1.0000   1.0000
     1.0000   1.0000   1.0000   1.0000   1.0000   1.0000   1.0000   1.0000
     1.0000   1.0000   1.0000   1.0000   1.0000   1.0000   1.0000   1.0000
     1.0000   1.0000   1.0000   1.0000   1.0000   1.0000   1.0000   1.0000
     1.0000   1.0000   1.0000   1.0000   1.0000   1.0000   1.0000   1.0000
     1.0000   1.0000   1.0000   1.0000   1.0000   1.0000   1.0000   1.0000
     1.0000   1.0000   1.0000   1.0000   1.0000   1.0000   1.0000   1.0000
     1.0000   1.0000   1.0000   1.0000   1.0000   1.0000   1.0000   1.0000
     1.0000   1.0000   1.0000   1.0000   1.0000   1.0000   1.0000   1.0000
     1.0000   1.0000   1.0000   1.0000   1.0000   1.0000   1.0000   1.0000
     1.0000   1.0000   1.0000   1.0000   1.0000   1.0000   1.0000   1.0000
     1.0000   1.0000   1.0000   1.0000   1.0000   1.0000   1.0000   1.0000
     1.0000   1.0000   1.0000   1.0000   1.0000   1.0000   1.0000   1.0000
     1.0000   1.0000   1.0000   1.0000   1.0000   1.0000   1.0000   1.0000
     1.0000   1.0000   1.0000   1.0000   1.0000   1.0000   1.0000   1.0000
     1.0000   1.0000   1.0000   1.0000   1.0000   1.0000   1.0000   1.0000
     1.0000   1.0000   1.0000   1.0000   1.0000   1.0000   1.0000   1.0000
     1.0000   1.0000   1.0000   1.0000   1.0000   1.0000   1.0000   1.0000
     1.0000   1.0000   1.0000   1.0000   1.0000   1.0000   1.0000   1.0000
     1.0000   1.0000   1.0000   1.0000   1.0000   1.0000   1.0000   1.0000
     1.0000   1.0000   1.0000   1.0000   1.0000   1.0000   1.0000   1.0000
     1.0000   1.0000   1.0000   1.0000   1.0000   1.0000   1.0000   1.0000
     1.0000   1.0000   1.0000   1.0000   1.0000   1.0000   1.0000   1.0000
     1.0000   1.0000   1.0000   1.0000   1.0000   1.0000   1.0000   1.0000
     1.0000   1.0000   1.0000   1.0000   1.0000   1.0000   1.0000   1.0000
     1.0000   1.0000   1.0000   1.0000   1.0000   1.0000   1.0000   1.0000
     1.0000   1.0000   1.0000   1.0000   1.0000   1.0000   1.0000   1.0000
     1.0000   1.0000   1.0000   1.0000   1.0000   1.0000   1.0000   1.0000
     1.0000   1.0000   1.0000   1.0000   1.0000   1.0000   1.0000   1.0000
     1.0000   1.0000   1.0000   1.0000   1.0000   1.0000   1.0000   1.0000
     1.0000   1.0000   1.0000   1.0000   1.0000   1.0000   1.0000   1.0000
     1.0000   1.0000   1.0000   1.0000   1.0000   1.0000   1.0000   1.0000
     1.0000   1.0000   1.0000   1.0000   1.0000   1.0000   1.0000   1.0000
     1.0000   1.0000   1.0000   1.0000   1.0000   1.0000   1.0000   1.0000
     1.0000   1.0000   1.0000   1.0000   1.0000   1.0000   1.0000   1.0000
     1.0000   1.0000   1.0000   1.0000   1.0000   1.0000   1.0000   1.0000
     1.0000   1.0000   1.0000   1.0000   1.0000   1.0000   1.0000   1.0000
     1.0000   1.0000   1.0000   1.0000   1.0000   1.0000   1.0000   1.0000
     1.0000   1.0000   1.0000   1.0000   1.0000   1.0000   1.0000   1.0000
     1.0000   1.0000   1.0000   1.0000   1.0000   1.0000   1.0000   1.0000
     1.0000   1.0000   1.0000   1.0000   1.0000   1.0000   1.0000   1.0000
     1.0000   1.0000   1.0000   1.0000   1.0000   1.0000   1.0000   1.0000
     1.0000   1.0000   1.0000   1.0000   1.0000   1.0000   1.0000   1.0000
     1.0000   1.0000   1.0000   1.0000   1.0000   1.0000   1.0000   1.0000
     1.0000   1.0000   1.0000   1.0000   1.0000   1.0000   1.0000   1.0000
     1.0000   1.0000   1.0000   1.0000   1.0000   1.0000   1.0000   1.0000
     1.0000   1.0000   1.0000   1.0000   1.0000   1.0000   1.0000   1.0000
     1.0000   1.0000   1.0000   1.0000   1.0000   1.0000   1.0000   1.0000
     1.0000   1.0000   1.0000   1.0000   1.0000   1.0000   1.0000   1.0000
     1.0000   1.0000   1.0000   1.0000   1.0000   1.0000   1.0000   1.0000
     1.0000   1.0000   1.0000   1.0000   1.0000   1.0000   1.0000   1.0000
     1.0000   1.0000   1.0000   1.0000   1.0000   1.0000   1.0000   1.0000
     1.0000   1.0000   1.0000   1.0000   1.0000   1.0000   1.0000   1.0000
     1.0000   1.0000   1.0000   1.0000   1.0000   1.0000   1.0000   1.0000
     1.0000   1.0000   1.0000   1.0000   1.0000   1.0000   1.0000   1.0000
     1.0000   1.0000   1.0000   1.0000   1.0000   1.0000   1.0000   1.0000
     1.0000   1.0000   1.0000   1.0000   1.0000   1.0000   1.0000   1.0000
     1.0000   1.0000   1.0000   1.0000   1.0000   1.0000   1.0000   1.0000
     1.0000   1.0000   1.0000   1.0000   1.0000   1.0000   1.0000   1.0000
     1.0000   1.0000   1.0000   1.0000   1.0000   1.0000   1.0000   1.0000
     1.0000   1.0000   1.0000   1.0000   1.0000   1.0000   1.0000   1.0000
     1.0000   1.0000   1.0000   1.0000   1.0000   1.0000   1.0000   1.0000
     1.0000   1.0000   1.0000   1.0000   1.0000   1.0000   1.0000   1.0000
     1.0000   1.0000   1.0000   1.0000   1.0000   1.0000   1.0000   1.0000
     1.0000   1.0000   1.0000   1.0000   1.0000   1.0000   1.0000   1.0000
     1.0000   1.0000   1.0000   1.0000   1.0000   1.0000   1.0000   1.0000
     1.0000   1.0000   1.0001   1.0001  -0.0319  -0.0320  -0.0000  -0.0000
    -0.0000  -0.0000  -0.0000  -0.0000  -0.0000  -0.0000  -0.0000  -0.0000
    -0.0000  -0.0000  -0.0000  -0.0000  -0.0000  -0.0000  -0.0000  -0.0000
    -0.0000  -0.0000  -0.0000  -0.0000  -0.0000  -0.0000  -0.0000  -0.0000
    -0.0000  -0.0000  -0.0000  -0.0000  -0.0000  -0.0000  -0.0000  -0.0000
    -0.0000  -0.0000  -0.0000  -0.0000  -0.0000  -0.0000  -0.0000  -0.0000
    -0.0000  -0.0000  -0.0000  -0.0000  -0.0000  -0.0000  -0.0000  -0.0000
    -0.0000  -0.0000  -0.0000  -0.0000  -0.0000  -0.0000  -0.0000  -0.0000
    -0.0000  -0.0000  -0.0000  -0.0000  -0.0000  -0.0000  -0.0000  -0.0000
    -0.0000  -0.0000  -0.0000  -0.0000  -0.0000  -0.0000  -0.0000  -0.0000
    -0.0000  -0.0000  -0.0000  -0.0000  -0.0000  -0.0000  -0.0000  -0.0000
    -0.0000  -0.0000  -0.0000  -0.0000  -0.0000  -0.0000  -0.0000  -0.0000
    -0.0000  -0.0000  -0.0000  -0.0000  -0.0000  -0.0000  -0.0000  -0.0000
    -0.0000  -0.0000  -0.0000  -0.0000  -0.0000  -0.0000  -0.0000  -0.0000

          k =-0.5000-0.2887-0.4746 (554528 PWs)   bands (ev):

   -68.2859 -68.2855 -68.2851 -68.2849 -68.2847 -68.2846 -68.2846 -68.2846
   -68.2846 -68.2845 -68.2845 -68.2845 -68.2844 -68.2844 -68.2841 -68.2840
   -68.2838 -68.2835 -67.7455 -67.7452 -67.7450 -67.7447 -67.7445 -67.7444
   -67.7444 -67.7444 -67.7443 -67.7443 -67.7442 -67.7442 -67.7441 -67.7441
   -67.7441 -67.7440 -67.7440 -67.7440 -67.7439 -67.7438 -67.7438 -67.7437
   -67.7437 -67.7437 -67.7437 -67.7436 -67.7436 -67.7436 -67.7436 -67.7435
   -67.7434 -67.7434 -67.7434 -67.7433 -67.7433 -67.7428 -35.6969 -35.6966
   -35.6961 -35.6960 -35.6957 -35.6957 -35.6957 -35.6957 -35.6956 -35.6955
   -35.6955 -35.6955 -35.6955 -35.6954 -35.6952 -35.6950 -35.6949 -35.6946
   -35.6920 -35.6920 -35.6917 -35.6917 -35.6913 -35.6912 -35.6911 -35.6911
   -35.6908 -35.6908 -35.6908 -35.6908 -35.6908 -35.6908 -35.6907 -35.6907
   -35.6907 -35.6907 -35.6907 -35.6906 -35.6906 -35.6906 -35.6906 -35.6906
   -35.6906 -35.6906 -35.6905 -35.6905 -35.6903 -35.6903 -35.6902 -35.6901
   -35.6900 -35.6899 -35.6897 -35.6896 -35.1781 -35.1781 -35.1779 -35.1778
   -35.1777 -35.1777 -35.1775 -35.1775 -35.1775 -35.1775 -35.1775 -35.1774
   -35.1773 -35.1773 -35.1773 -35.1773 -35.1772 -35.1772 -35.1772 -35.1771
   -35.1771 -35.1771 -35.1770 -35.1770 -35.1770 -35.1770 -35.1770 -35.1770
   -35.1769 -35.1769 -35.1768 -35.1768 -35.1768 -35.1768 -35.1768 -35.1767
   -35.1762 -35.1761 -35.1760 -35.1759 -35.1759 -35.1758 -35.1758 -35.1758
   -35.1758 -35.1757 -35.1753 -35.1753 -35.1751 -35.1751 -35.1746 -35.1744
   -35.1743 -35.1743 -35.1712 -35.1710 -35.1709 -35.1708 -35.1708 -35.1707
   -35.1706 -35.1706 -35.1705 -35.1705 -35.1705 -35.1704 -35.1704 -35.1703
   -35.1703 -35.1703 -35.1703 -35.1702 -35.1702 -35.1702 -35.1702 -35.1702
   -35.1697 -35.1696 -35.1694 -35.1694 -35.1692 -35.1690 -35.1688 -35.1688
   -35.1687 -35.1687 -35.1687 -35.1686 -35.1686 -35.1686 -35.1685 -35.1684
   -35.1684 -35.1683 -35.1683 -35.1682 -35.1682 -35.1681 -35.1681 -35.1681
   -35.1681 -35.1681 -35.1681 -35.1680 -35.1680 -35.1680 -35.1680 -35.1676
   -14.2179 -14.2173 -14.2167 -14.2161 -14.2157 -14.2155 -14.2151 -14.2151
   -14.2149 -14.2149 -14.2147 -14.2147 -14.2146 -14.2143 -14.2140 -14.2139
   -14.2133 -14.2128 -14.2126 -14.2118 -14.2116 -14.2113 -14.2109 -14.2108
   -14.2107 -14.2106 -14.2105 -14.2104 -14.2103 -14.2102 -14.2101 -14.2097
   -14.2097 -14.2096 -14.2095 -14.2094 -14.2093 -14.2091 -14.2088 -14.2085
   -14.2085 -14.2084 -14.2082 -14.2082 -14.2081 -14.2080 -14.2080 -14.2079
   -14.2079 -14.2079 -14.2078 -14.2077 -14.2077 -14.2075 -14.2073 -14.2070
   -14.2065 -14.2064 -14.2062 -14.2062 -14.2058 -14.2057 -14.2049 -14.2046
   -14.2043 -14.2043 -14.2041 -14.2040 -14.2038 -14.2035 -14.2030 -14.2028
   -14.1900 -14.1881 -14.1879 -14.1879 -14.1878 -14.1874 -14.1871 -14.1869
   -14.1867 -14.1866 -14.1864 -14.1863 -14.1862 -14.1861 -14.1858 -14.1858
   -14.1858 -14.1856 -14.1855 -14.1854 -14.1853 -14.1849 -14.1847 -14.1844
   -14.1841 -14.1838 -14.1833 -14.1832 -14.1830 -14.1828 -14.1828 -14.1827
   -14.1826 -14.1822 -14.1821 -14.1806 -14.1746 -14.1745 -14.1734 -14.1733
   -14.1731 -14.1730 -14.1728 -14.1727 -14.1727 -14.1724 -14.1722 -14.1719
   -14.1717 -14.1717 -14.1713 -14.1712 -14.1710 -14.1710 -14.1708 -14.1708
   -14.1706 -14.1705 -14.1703 -14.1701 -14.1696 -14.1690 -14.1679 -14.1673
   -14.1673 -14.1672 -14.1671 -14.1670 -14.1665 -14.1664 -14.1663 -14.1663
   -14.1655 -14.1653 -14.1647 -14.1645 -14.1641 -14.1641 -14.1635 -14.1634
   -14.1632 -14.1631 -14.1624 -14.1622 -14.1618 -14.1615 -14.1614 -14.1608
   -14.1603 -14.1601 -14.1597 -14.1589 -14.1588 -14.1586 -14.1583 -14.1582
   -14.1580 -14.1579 -14.1578 -14.1578 -14.1577 -14.1575 -14.1575 -14.1574
   -14.1570 -14.1565 -14.1565 -14.1558  -3.4783  -3.4773  -3.4769  -3.4763
    -3.2157  -3.2151  -3.2147  -3.2142  -2.8626  -2.8619  -2.8615  -2.8609
    -2.8592  -2.8587  -2.8586  -2.8582  -2.8411  -2.8402  -2.8115  -2.8103
    -2.8097  -2.8093  -2.6802  -2.6795  -2.6792  -2.6787  -2.6054  -2.6045
    -2.5931  -2.5923  -2.5922  -2.5918  -2.5893  -2.5889  -2.5886  -2.5878
     3.0440   3.0448   3.3183   3.3187   3.3189   3.3191   3.3960   3.3965
     3.3969   3.3972   3.5759   3.5761   3.6018   3.6029   3.7189   3.7190
     3.7192   3.7200   3.7255   3.7262   3.8098   3.8101   3.8103   3.8105
     3.8948   3.8953   3.8954   3.8956   4.3930   4.3936   4.3942   4.3942
     4.7766   4.7770   4.7772   4.7774   4.8172   4.8175   4.8178   4.8183
     5.1580   5.1586   5.1590   5.1591   5.2398   5.2402   5.3063   5.3063
     5.4484   5.4490   5.5437   5.5441   5.5442   5.5446   5.5494   5.5498
     5.5500   5.5505   5.7818   5.7822   5.7907   5.7911   5.7914   5.7918
     5.8506   5.8517   5.8987   5.8990   5.9365   5.9367   5.9371   5.9374
     5.9586   5.9587   5.9591   5.9594   6.5062   6.5068   6.6134   6.6138
     6.6142   6.6144   6.6207   6.6215   6.6731   6.6742   6.7990   6.7991
     6.7995   6.8004   6.8193   6.8197   6.8197   6.8201   6.9361   6.9373
     7.2859   7.2869   7.3788   7.3790   7.3808   7.3810   7.3810   7.3820
     7.4499   7.4511   7.5584   7.5594   8.1255   8.1261   9.0312   9.0313
     9.0317   9.0319   9.0734   9.0738   9.1605   9.1610   9.2619   9.2620
     9.2624   9.2627   9.4777   9.4777   9.4780   9.4781   9.5651   9.5656
     9.9641   9.9646  10.0608  10.0613  10.1395  10.1400  10.1403  10.1404
    10.1754  10.1756  10.1759  10.1773  10.2082  10.2085  10.2086  10.2088
    10.2804  10.2804  10.2806  10.2810  10.4241  10.4243  10.4245  10.4252
    10.6646  10.6650  10.6651  10.6655  10.6861  10.6864  10.7728  10.7731
    10.9391  10.9393  10.9395  10.9396  11.1128  11.1136  11.1262  11.1263
    11.1266  11.1274  11.1981  11.1983  11.2369  11.2374  11.3354  11.3357
    11.4377  11.4383  11.4687  11.4688  11.4690  11.4697  11.4746  11.4751
    11.4786  11.4790  11.4791  11.4795  11.6198  11.6201  11.7424  11.7426
    11.7740  11.7744  11.8555  11.8557  11.8558  11.8561  12.0505  12.0509
    12.0577  12.0577  12.0579  12.0581  12.1870  12.1873  12.1874  12.1877
    12.4680  12.4683  12.6120  12.6132  12.7251  12.7254  12.7421  12.7424

     occupation numbers 
     1.0000   1.0000   1.0000   1.0000   1.0000   1.0000   1.0000   1.0000
     1.0000   1.0000   1.0000   1.0000   1.0000   1.0000   1.0000   1.0000
     1.0000   1.0000   1.0000   1.0000   1.0000   1.0000   1.0000   1.0000
     1.0000   1.0000   1.0000   1.0000   1.0000   1.0000   1.0000   1.0000
     1.0000   1.0000   1.0000   1.0000   1.0000   1.0000   1.0000   1.0000
     1.0000   1.0000   1.0000   1.0000   1.0000   1.0000   1.0000   1.0000
     1.0000   1.0000   1.0000   1.0000   1.0000   1.0000   1.0000   1.0000
     1.0000   1.0000   1.0000   1.0000   1.0000   1.0000   1.0000   1.0000
     1.0000   1.0000   1.0000   1.0000   1.0000   1.0000   1.0000   1.0000
     1.0000   1.0000   1.0000   1.0000   1.0000   1.0000   1.0000   1.0000
     1.0000   1.0000   1.0000   1.0000   1.0000   1.0000   1.0000   1.0000
     1.0000   1.0000   1.0000   1.0000   1.0000   1.0000   1.0000   1.0000
     1.0000   1.0000   1.0000   1.0000   1.0000   1.0000   1.0000   1.0000
     1.0000   1.0000   1.0000   1.0000   1.0000   1.0000   1.0000   1.0000
     1.0000   1.0000   1.0000   1.0000   1.0000   1.0000   1.0000   1.0000
     1.0000   1.0000   1.0000   1.0000   1.0000   1.0000   1.0000   1.0000
     1.0000   1.0000   1.0000   1.0000   1.0000   1.0000   1.0000   1.0000
     1.0000   1.0000   1.0000   1.0000   1.0000   1.0000   1.0000   1.0000
     1.0000   1.0000   1.0000   1.0000   1.0000   1.0000   1.0000   1.0000
     1.0000   1.0000   1.0000   1.0000   1.0000   1.0000   1.0000   1.0000
     1.0000   1.0000   1.0000   1.0000   1.0000   1.0000   1.0000   1.0000
     1.0000   1.0000   1.0000   1.0000   1.0000   1.0000   1.0000   1.0000
     1.0000   1.0000   1.0000   1.0000   1.0000   1.0000   1.0000   1.0000
     1.0000   1.0000   1.0000   1.0000   1.0000   1.0000   1.0000   1.0000
     1.0000   1.0000   1.0000   1.0000   1.0000   1.0000   1.0000   1.0000
     1.0000   1.0000   1.0000   1.0000   1.0000   1.0000   1.0000   1.0000
     1.0000   1.0000   1.0000   1.0000   1.0000   1.0000   1.0000   1.0000
     1.0000   1.0000   1.0000   1.0000   1.0000   1.0000   1.0000   1.0000
     1.0000   1.0000   1.0000   1.0000   1.0000   1.0000   1.0000   1.0000
     1.0000   1.0000   1.0000   1.0000   1.0000   1.0000   1.0000   1.0000
     1.0000   1.0000   1.0000   1.0000   1.0000   1.0000   1.0000   1.0000
     1.0000   1.0000   1.0000   1.0000   1.0000   1.0000   1.0000   1.0000
     1.0000   1.0000   1.0000   1.0000   1.0000   1.0000   1.0000   1.0000
     1.0000   1.0000   1.0000   1.0000   1.0000   1.0000   1.0000   1.0000
     1.0000   1.0000   1.0000   1.0000   1.0000   1.0000   1.0000   1.0000
     1.0000   1.0000   1.0000   1.0000   1.0000   1.0000   1.0000   1.0000
     1.0000   1.0000   1.0000   1.0000   1.0000   1.0000   1.0000   1.0000
     1.0000   1.0000   1.0000   1.0000   1.0000   1.0000   1.0000   1.0000
     1.0000   1.0000   1.0000   1.0000   1.0000   1.0000   1.0000   1.0000
     1.0000   1.0000   1.0000   1.0000   1.0000   1.0000   1.0000   1.0000
     1.0000   1.0000   1.0000   1.0000   1.0000   1.0000   1.0000   1.0000
     1.0000   1.0000   1.0000   1.0000   1.0000   1.0000   1.0000   1.0000
     1.0000   1.0000   1.0000   1.0000   1.0000   1.0000   1.0000   1.0000
     1.0000   1.0000   1.0000   1.0000   1.0000   1.0000   1.0000   1.0000
     1.0000   1.0000   1.0000   1.0000   1.0000   1.0000   1.0000   1.0000
     1.0000   1.0000   1.0000   1.0000   1.0000   1.0000   1.0000   1.0000
     1.0000   1.0000   1.0000   1.0000   1.0000   1.0000   1.0000   1.0000
     1.0000   1.0000   1.0000   1.0000   1.0000   1.0000   1.0000   1.0000
     1.0000   1.0000   1.0000   1.0000   1.0000   1.0000   1.0000   1.0000
     1.0000   1.0000   1.0000   1.0000   1.0000   1.0000   1.0000   1.0000
     1.0000   1.0000   1.0000   1.0000   1.0000   1.0000   1.0000   1.0000
     1.0000   1.0000   1.0000   1.0000   1.0000   1.0000   1.0000   1.0000
     1.0000   1.0000   1.0000   1.0000   1.0000   1.0000   1.0000   1.0000
     1.0000   1.0000   1.0000   1.0000   1.0000   1.0000   1.0000   1.0000
     1.0000   1.0000   1.0000   1.0000   1.0000   1.0000   1.0000   1.0000
     1.0000   1.0000   1.0000   1.0000   1.0000   1.0000   1.0000   1.0000
     1.0000   1.0000   1.0000   1.0000   1.0000   1.0000   1.0000   1.0000
     1.0000   1.0000   1.0000   1.0000   1.0000   1.0000   1.0000   1.0000
     1.0000   1.0000   1.0000   1.0000   1.0000   1.0000   1.0000   1.0000
     1.0000   1.0000   1.0000   1.0000   1.0000   1.0000   1.0000   1.0000
     1.0000   1.0000   1.0000   1.0000   1.0000   1.0000   1.0000   1.0000
     1.0000   1.0000   1.0000   1.0000   1.0000   1.0000   1.0000   1.0000
     1.0000   1.0000   1.0000   1.0000   1.0000   1.0000   1.0000   1.0000
     1.0000   1.0000   1.0000   1.0000   1.0000   1.0000   1.0000   1.0000
     1.0000   1.0000   1.0000   1.0000   1.0000   1.0000   1.0000   1.0000
     1.0000   1.0000   1.0000   1.0000   1.0000   1.0000   1.0000   1.0000
     1.0000   1.0000   1.0000   1.0000   1.0000   1.0000   1.0000   1.0000
     1.0000   1.0000   1.0001   1.0001  -0.0318  -0.0320  -0.0000  -0.0000
    -0.0000  -0.0000  -0.0000  -0.0000  -0.0000  -0.0000  -0.0000  -0.0000
    -0.0000  -0.0000  -0.0000  -0.0000  -0.0000  -0.0000  -0.0000  -0.0000
    -0.0000  -0.0000  -0.0000  -0.0000  -0.0000  -0.0000  -0.0000  -0.0000
    -0.0000  -0.0000  -0.0000  -0.0000  -0.0000  -0.0000  -0.0000  -0.0000
    -0.0000  -0.0000  -0.0000  -0.0000  -0.0000  -0.0000  -0.0000  -0.0000
    -0.0000  -0.0000  -0.0000  -0.0000  -0.0000  -0.0000  -0.0000  -0.0000
    -0.0000  -0.0000  -0.0000  -0.0000  -0.0000  -0.0000  -0.0000  -0.0000
    -0.0000  -0.0000  -0.0000  -0.0000  -0.0000  -0.0000  -0.0000  -0.0000
    -0.0000  -0.0000  -0.0000  -0.0000  -0.0000  -0.0000  -0.0000  -0.0000
    -0.0000  -0.0000  -0.0000  -0.0000  -0.0000  -0.0000  -0.0000  -0.0000
    -0.0000  -0.0000  -0.0000  -0.0000  -0.0000  -0.0000  -0.0000  -0.0000
    -0.0000  -0.0000  -0.0000  -0.0000  -0.0000  -0.0000  -0.0000  -0.0000
    -0.0000  -0.0000  -0.0000  -0.0000  -0.0000  -0.0000  -0.0000  -0.0000

          k =-0.2500 0.4330 0.0000 (554595 PWs)   bands (ev):

   -68.2859 -68.2855 -68.2851 -68.2849 -68.2847 -68.2846 -68.2846 -68.2846
   -68.2846 -68.2845 -68.2845 -68.2845 -68.2844 -68.2844 -68.2841 -68.2840
   -68.2838 -68.2835 -67.7455 -67.7452 -67.7450 -67.7447 -67.7445 -67.7444
   -67.7444 -67.7444 -67.7443 -67.7443 -67.7442 -67.7442 -67.7442 -67.7441
   -67.7441 -67.7441 -67.7440 -67.7440 -67.7439 -67.7438 -67.7438 -67.7437
   -67.7437 -67.7437 -67.7437 -67.7437 -67.7436 -67.7436 -67.7436 -67.7435
   -67.7434 -67.7434 -67.7434 -67.7433 -67.7433 -67.7428 -35.6969 -35.6966
   -35.6961 -35.6960 -35.6957 -35.6957 -35.6957 -35.6957 -35.6956 -35.6955
   -35.6955 -35.6955 -35.6955 -35.6954 -35.6952 -35.6950 -35.6949 -35.6946
   -35.6920 -35.6920 -35.6917 -35.6917 -35.6913 -35.6912 -35.6911 -35.6911
   -35.6908 -35.6908 -35.6908 -35.6908 -35.6908 -35.6908 -35.6907 -35.6907
   -35.6907 -35.6907 -35.6907 -35.6906 -35.6906 -35.6906 -35.6906 -35.6906
   -35.6906 -35.6905 -35.6905 -35.6905 -35.6903 -35.6903 -35.6902 -35.6901
   -35.6900 -35.6899 -35.6897 -35.6896 -35.1781 -35.1781 -35.1779 -35.1778
   -35.1777 -35.1777 -35.1775 -35.1775 -35.1774 -35.1774 -35.1774 -35.1774
   -35.1774 -35.1773 -35.1773 -35.1773 -35.1772 -35.1772 -35.1771 -35.1771
   -35.1771 -35.1771 -35.1770 -35.1770 -35.1770 -35.1770 -35.1770 -35.1769
   -35.1769 -35.1769 -35.1769 -35.1769 -35.1768 -35.1768 -35.1768 -35.1766
   -35.1762 -35.1762 -35.1760 -35.1760 -35.1759 -35.1758 -35.1758 -35.1758
   -35.1757 -35.1756 -35.1755 -35.1755 -35.1750 -35.1748 -35.1747 -35.1747
   -35.1744 -35.1742 -35.1712 -35.1710 -35.1709 -35.1708 -35.1708 -35.1707
   -35.1707 -35.1706 -35.1706 -35.1704 -35.1704 -35.1704 -35.1704 -35.1704
   -35.1703 -35.1703 -35.1703 -35.1702 -35.1702 -35.1702 -35.1701 -35.1699
   -35.1698 -35.1698 -35.1694 -35.1692 -35.1691 -35.1690 -35.1690 -35.1689
   -35.1688 -35.1687 -35.1686 -35.1686 -35.1686 -35.1685 -35.1685 -35.1685
   -35.1683 -35.1683 -35.1683 -35.1682 -35.1682 -35.1682 -35.1681 -35.1681
   -35.1681 -35.1681 -35.1681 -35.1680 -35.1680 -35.1680 -35.1680 -35.1676
   -14.2180 -14.2173 -14.2167 -14.2162 -14.2159 -14.2157 -14.2153 -14.2150
   -14.2149 -14.2147 -14.2146 -14.2145 -14.2144 -14.2141 -14.2140 -14.2137
   -14.2136 -14.2128 -14.2123 -14.2119 -14.2116 -14.2113 -14.2111 -14.2111
   -14.2110 -14.2108 -14.2106 -14.2105 -14.2104 -14.2103 -14.2102 -14.2100
   -14.2098 -14.2097 -14.2094 -14.2093 -14.2090 -14.2089 -14.2087 -14.2087
   -14.2086 -14.2085 -14.2083 -14.2081 -14.2081 -14.2080 -14.2079 -14.2077
   -14.2075 -14.2075 -14.2074 -14.2073 -14.2072 -14.2072 -14.2070 -14.2069
   -14.2067 -14.2066 -14.2063 -14.2062 -14.2059 -14.2057 -14.2054 -14.2049
   -14.2047 -14.2046 -14.2044 -14.2042 -14.2037 -14.2031 -14.2028 -14.2025
   -14.1900 -14.1885 -14.1879 -14.1879 -14.1876 -14.1874 -14.1872 -14.1871
   -14.1869 -14.1866 -14.1864 -14.1862 -14.1861 -14.1860 -14.1857 -14.1857
   -14.1856 -14.1855 -14.1853 -14.1851 -14.1850 -14.1848 -14.1847 -14.1844
   -14.1841 -14.1838 -14.1836 -14.1834 -14.1833 -14.1830 -14.1828 -14.1827
   -14.1824 -14.1821 -14.1821 -14.1806 -14.1746 -14.1745 -14.1735 -14.1733
   -14.1732 -14.1732 -14.1727 -14.1725 -14.1724 -14.1723 -14.1722 -14.1721
   -14.1719 -14.1719 -14.1717 -14.1716 -14.1711 -14.1709 -14.1708 -14.1706
   -14.1704 -14.1702 -14.1696 -14.1695 -14.1693 -14.1691 -14.1684 -14.1683
   -14.1679 -14.1674 -14.1671 -14.1666 -14.1665 -14.1663 -14.1660 -14.1654
   -14.1654 -14.1651 -14.1649 -14.1647 -14.1646 -14.1643 -14.1636 -14.1633
   -14.1629 -14.1628 -14.1626 -14.1623 -14.1618 -14.1615 -14.1609 -14.1609
   -14.1608 -14.1600 -14.1595 -14.1591 -14.1589 -14.1588 -14.1586 -14.1585
   -14.1583 -14.1582 -14.1580 -14.1578 -14.1575 -14.1574 -14.1573 -14.1571
   -14.1569 -14.1564 -14.1560 -14.1558  -3.6094  -3.4625  -3.4620  -3.3471
    -3.2184  -3.2178  -3.0969  -3.0964  -3.0485  -2.9491  -2.9486  -2.9171
    -2.9167  -2.9154  -2.8936  -2.8929  -2.8141  -2.7844  -2.7706  -2.7699
    -2.7406  -2.7401  -2.7190  -2.6817  -2.6735  -2.6728  -2.6669  -2.6498
    -2.6228  -2.6223  -2.5702  -2.5584  -2.5577  -2.5383  -2.5370  -2.5366
     3.0538   3.0542   3.1587   3.1657   3.2825   3.2832   3.3589   3.4011
     3.4017   3.4502   3.4508   3.5124   3.5145   3.5620   3.5899   3.5901
     3.7037   3.7487   3.7492   3.8838   3.8841   4.1426   4.1432   4.1544
     4.1995   4.2001   4.2185   4.2192   4.2723   4.3763   4.3766   4.3917
     4.3921   4.4291   4.5312   4.6434   4.6442   4.6665   4.6994   4.8173
     4.8645   4.8673   4.9606   4.9611   5.0144   5.2474   5.2942   5.2947
     5.3509   5.3512   5.4144   5.4293   5.4295   5.4880   5.4886   5.5148
     5.5150   5.7377   5.7383   5.7877   5.8292   5.9123   5.9126   5.9783
     6.0209   6.0211   6.0484   6.1497   6.1501   6.2232   6.2649   6.2653
     6.2718   6.4003   6.4009   6.5278   6.5368   6.5371   6.5608   6.5616
     6.5661   6.5777   6.5782   6.6212   6.6216   6.6571   6.6573   6.6721
     6.6723   6.7693   6.7826   6.7832   6.8161   6.8163   6.8394   6.8511
     6.8845   6.9222   6.9224   6.9569   7.0187   7.0910   7.4050   7.4054
     7.5794   7.5798   7.6051   7.9044   8.6468   8.6470   8.6477   8.6478
     8.7040   8.7490   9.1215   9.1608   9.1612   9.2493   9.2502   9.3423
     9.4156   9.4160   9.4272   9.4274   9.4933   9.5403   9.6215   9.6218
     9.8074   9.8081   9.8344   9.8524   9.8784   9.9946  10.0286  10.0288
    10.1159  10.1160  10.1198  10.1200  10.1412  10.1414  10.2143  10.2621
    10.2627  10.2920  10.2926  10.3619  10.3700  10.4085  10.4090  10.5883
    10.5887  10.7086  10.8410  10.8413  10.8564  10.8727  10.9065  10.9673
    10.9678  10.9919  10.9950  10.9957  11.0716  11.0722  11.0918  11.1396
    11.1402  11.1865  11.1966  11.2176  11.2391  11.2697  11.2700  11.2928
    11.2932  11.3424  11.3428  11.3436  11.3439  11.3758  11.3761  11.5732
    11.6088  11.8017  11.9139  11.9144  11.9172  11.9177  11.9594  11.9785
    11.9810  11.9892  12.0018  12.0024  12.0721  12.0723  12.0958  12.0961
    12.1042  12.1047  12.1136  12.1589  12.3160  12.3810  12.3842  12.4207
    12.4210  12.4435  12.5112  12.5313  12.5318  12.6120  12.6124  12.6621

     occupation numbers 
     1.0000   1.0000   1.0000   1.0000   1.0000   1.0000   1.0000   1.0000
     1.0000   1.0000   1.0000   1.0000   1.0000   1.0000   1.0000   1.0000
     1.0000   1.0000   1.0000   1.0000   1.0000   1.0000   1.0000   1.0000
     1.0000   1.0000   1.0000   1.0000   1.0000   1.0000   1.0000   1.0000
     1.0000   1.0000   1.0000   1.0000   1.0000   1.0000   1.0000   1.0000
     1.0000   1.0000   1.0000   1.0000   1.0000   1.0000   1.0000   1.0000
     1.0000   1.0000   1.0000   1.0000   1.0000   1.0000   1.0000   1.0000
     1.0000   1.0000   1.0000   1.0000   1.0000   1.0000   1.0000   1.0000
     1.0000   1.0000   1.0000   1.0000   1.0000   1.0000   1.0000   1.0000
     1.0000   1.0000   1.0000   1.0000   1.0000   1.0000   1.0000   1.0000
     1.0000   1.0000   1.0000   1.0000   1.0000   1.0000   1.0000   1.0000
     1.0000   1.0000   1.0000   1.0000   1.0000   1.0000   1.0000   1.0000
     1.0000   1.0000   1.0000   1.0000   1.0000   1.0000   1.0000   1.0000
     1.0000   1.0000   1.0000   1.0000   1.0000   1.0000   1.0000   1.0000
     1.0000   1.0000   1.0000   1.0000   1.0000   1.0000   1.0000   1.0000
     1.0000   1.0000   1.0000   1.0000   1.0000   1.0000   1.0000   1.0000
     1.0000   1.0000   1.0000   1.0000   1.0000   1.0000   1.0000   1.0000
     1.0000   1.0000   1.0000   1.0000   1.0000   1.0000   1.0000   1.0000
     1.0000   1.0000   1.0000   1.0000   1.0000   1.0000   1.0000   1.0000
     1.0000   1.0000   1.0000   1.0000   1.0000   1.0000   1.0000   1.0000
     1.0000   1.0000   1.0000   1.0000   1.0000   1.0000   1.0000   1.0000
     1.0000   1.0000   1.0000   1.0000   1.0000   1.0000   1.0000   1.0000
     1.0000   1.0000   1.0000   1.0000   1.0000   1.0000   1.0000   1.0000
     1.0000   1.0000   1.0000   1.0000   1.0000   1.0000   1.0000   1.0000
     1.0000   1.0000   1.0000   1.0000   1.0000   1.0000   1.0000   1.0000
     1.0000   1.0000   1.0000   1.0000   1.0000   1.0000   1.0000   1.0000
     1.0000   1.0000   1.0000   1.0000   1.0000   1.0000   1.0000   1.0000
     1.0000   1.0000   1.0000   1.0000   1.0000   1.0000   1.0000   1.0000
     1.0000   1.0000   1.0000   1.0000   1.0000   1.0000   1.0000   1.0000
     1.0000   1.0000   1.0000   1.0000   1.0000   1.0000   1.0000   1.0000
     1.0000   1.0000   1.0000   1.0000   1.0000   1.0000   1.0000   1.0000
     1.0000   1.0000   1.0000   1.0000   1.0000   1.0000   1.0000   1.0000
     1.0000   1.0000   1.0000   1.0000   1.0000   1.0000   1.0000   1.0000
     1.0000   1.0000   1.0000   1.0000   1.0000   1.0000   1.0000   1.0000
     1.0000   1.0000   1.0000   1.0000   1.0000   1.0000   1.0000   1.0000
     1.0000   1.0000   1.0000   1.0000   1.0000   1.0000   1.0000   1.0000
     1.0000   1.0000   1.0000   1.0000   1.0000   1.0000   1.0000   1.0000
     1.0000   1.0000   1.0000   1.0000   1.0000   1.0000   1.0000   1.0000
     1.0000   1.0000   1.0000   1.0000   1.0000   1.0000   1.0000   1.0000
     1.0000   1.0000   1.0000   1.0000   1.0000   1.0000   1.0000   1.0000
     1.0000   1.0000   1.0000   1.0000   1.0000   1.0000   1.0000   1.0000
     1.0000   1.0000   1.0000   1.0000   1.0000   1.0000   1.0000   1.0000
     1.0000   1.0000   1.0000   1.0000   1.0000   1.0000   1.0000   1.0000
     1.0000   1.0000   1.0000   1.0000   1.0000   1.0000   1.0000   1.0000
     1.0000   1.0000   1.0000   1.0000   1.0000   1.0000   1.0000   1.0000
     1.0000   1.0000   1.0000   1.0000   1.0000   1.0000   1.0000   1.0000
     1.0000   1.0000   1.0000   1.0000   1.0000   1.0000   1.0000   1.0000
     1.0000   1.0000   1.0000   1.0000   1.0000   1.0000   1.0000   1.0000
     1.0000   1.0000   1.0000   1.0000   1.0000   1.0000   1.0000   1.0000
     1.0000   1.0000   1.0000   1.0000   1.0000   1.0000   1.0000   1.0000
     1.0000   1.0000   1.0000   1.0000   1.0000   1.0000   1.0000   1.0000
     1.0000   1.0000   1.0000   1.0000   1.0000   1.0000   1.0000   1.0000
     1.0000   1.0000   1.0000   1.0000   1.0000   1.0000   1.0000   1.0000
     1.0000   1.0000   1.0000   1.0000   1.0000   1.0000   1.0000   1.0000
     1.0000   1.0000   1.0000   1.0000   1.0000   1.0000   1.0000   1.0000
     1.0000   1.0000   1.0000   1.0000   1.0000   1.0000   1.0000   1.0000
     1.0000   1.0000   1.0000   1.0000   1.0000   1.0000   1.0000   1.0000
     1.0000   1.0000   1.0000   1.0000   1.0000   1.0000   1.0000   1.0000
     1.0000   1.0000   1.0000   1.0000   1.0000   1.0000   1.0000   1.0000
     1.0000   1.0000   1.0000   1.0000   1.0000   1.0000   1.0000   1.0000
     1.0000   1.0000   1.0000   1.0000   1.0000   1.0000   1.0000   1.0000
     1.0000   1.0000   1.0000   1.0000   1.0000   1.0000   1.0000   1.0000
     1.0000   1.0000   1.0000   1.0000   1.0000   1.0000   1.0000   1.0000
     1.0000   1.0000   1.0000   1.0000   1.0000   1.0000   1.0000   1.0000
     1.0000   1.0000   1.0000   1.0000   1.0000   1.0000   1.0000   1.0000
     1.0000   1.0000   1.0000   1.0000   1.0000   1.0000   1.0000   1.0000
     1.0000   1.0000   1.0000   1.0000   1.0000   1.0000   1.0000   1.0000
     1.0001   1.0001   1.0004   0.8919  -0.0000  -0.0000  -0.0000  -0.0000
    -0.0000  -0.0000  -0.0000  -0.0000  -0.0000  -0.0000  -0.0000  -0.0000
    -0.0000  -0.0000  -0.0000  -0.0000  -0.0000  -0.0000  -0.0000  -0.0000
    -0.0000  -0.0000  -0.0000  -0.0000  -0.0000  -0.0000  -0.0000  -0.0000
    -0.0000  -0.0000  -0.0000  -0.0000  -0.0000  -0.0000  -0.0000  -0.0000
    -0.0000  -0.0000  -0.0000  -0.0000  -0.0000  -0.0000  -0.0000  -0.0000
    -0.0000  -0.0000  -0.0000  -0.0000  -0.0000  -0.0000  -0.0000  -0.0000
    -0.0000  -0.0000  -0.0000  -0.0000  -0.0000  -0.0000  -0.0000  -0.0000
    -0.0000  -0.0000  -0.0000  -0.0000  -0.0000  -0.0000  -0.0000  -0.0000
    -0.0000  -0.0000  -0.0000  -0.0000  -0.0000  -0.0000  -0.0000  -0.0000
    -0.0000  -0.0000  -0.0000  -0.0000  -0.0000  -0.0000  -0.0000  -0.0000
    -0.0000  -0.0000  -0.0000  -0.0000  -0.0000  -0.0000  -0.0000  -0.0000
    -0.0000  -0.0000  -0.0000  -0.0000  -0.0000  -0.0000  -0.0000  -0.0000
    -0.0000  -0.0000  -0.0000  -0.0000  -0.0000  -0.0000  -0.0000  -0.0000

          k = 0.5000 0.0000 0.0000 (554595 PWs)   bands (ev):

   -68.2859 -68.2855 -68.2851 -68.2849 -68.2847 -68.2846 -68.2846 -68.2846
   -68.2846 -68.2845 -68.2845 -68.2845 -68.2844 -68.2844 -68.2841 -68.2840
   -68.2838 -68.2835 -67.7455 -67.7452 -67.7450 -67.7447 -67.7445 -67.7444
   -67.7444 -67.7444 -67.7444 -67.7443 -67.7442 -67.7442 -67.7442 -67.7441
   -67.7441 -67.7441 -67.7440 -67.7440 -67.7439 -67.7438 -67.7438 -67.7437
   -67.7437 -67.7437 -67.7437 -67.7437 -67.7436 -67.7436 -67.7436 -67.7435
   -67.7434 -67.7434 -67.7434 -67.7433 -67.7433 -67.7428 -35.6969 -35.6966
   -35.6961 -35.6960 -35.6957 -35.6957 -35.6957 -35.6957 -35.6956 -35.6955
   -35.6955 -35.6955 -35.6955 -35.6954 -35.6952 -35.6950 -35.6949 -35.6946
   -35.6920 -35.6920 -35.6917 -35.6917 -35.6913 -35.6912 -35.6911 -35.6911
   -35.6908 -35.6908 -35.6908 -35.6908 -35.6908 -35.6908 -35.6907 -35.6907
   -35.6907 -35.6907 -35.6906 -35.6906 -35.6906 -35.6906 -35.6906 -35.6906
   -35.6906 -35.6905 -35.6905 -35.6905 -35.6903 -35.6903 -35.6902 -35.6901
   -35.6900 -35.6899 -35.6897 -35.6896 -35.1782 -35.1781 -35.1778 -35.1778
   -35.1777 -35.1777 -35.1775 -35.1775 -35.1774 -35.1774 -35.1774 -35.1774
   -35.1773 -35.1773 -35.1773 -35.1773 -35.1772 -35.1771 -35.1771 -35.1771
   -35.1771 -35.1771 -35.1770 -35.1770 -35.1770 -35.1770 -35.1770 -35.1770
   -35.1769 -35.1769 -35.1769 -35.1769 -35.1768 -35.1768 -35.1768 -35.1767
   -35.1762 -35.1761 -35.1760 -35.1760 -35.1759 -35.1759 -35.1758 -35.1757
   -35.1757 -35.1756 -35.1755 -35.1755 -35.1749 -35.1749 -35.1747 -35.1747
   -35.1744 -35.1742 -35.1712 -35.1710 -35.1709 -35.1708 -35.1707 -35.1707
   -35.1707 -35.1706 -35.1706 -35.1705 -35.1704 -35.1704 -35.1704 -35.1704
   -35.1703 -35.1703 -35.1703 -35.1702 -35.1702 -35.1702 -35.1701 -35.1699
   -35.1698 -35.1698 -35.1694 -35.1693 -35.1690 -35.1690 -35.1690 -35.1689
   -35.1688 -35.1687 -35.1687 -35.1686 -35.1686 -35.1686 -35.1685 -35.1685
   -35.1683 -35.1683 -35.1682 -35.1682 -35.1682 -35.1682 -35.1681 -35.1681
   -35.1681 -35.1681 -35.1681 -35.1680 -35.1680 -35.1680 -35.1680 -35.1676
   -14.2179 -14.2174 -14.2166 -14.2162 -14.2159 -14.2156 -14.2154 -14.2152
   -14.2148 -14.2147 -14.2146 -14.2145 -14.2144 -14.2141 -14.2139 -14.2137
   -14.2136 -14.2128 -14.2125 -14.2119 -14.2116 -14.2113 -14.2112 -14.2111
   -14.2109 -14.2108 -14.2106 -14.2105 -14.2103 -14.2103 -14.2102 -14.2100
   -14.2099 -14.2096 -14.2094 -14.2092 -14.2090 -14.2089 -14.2088 -14.2086
   -14.2085 -14.2084 -14.2083 -14.2081 -14.2081 -14.2080 -14.2079 -14.2077
   -14.2076 -14.2075 -14.2074 -14.2073 -14.2072 -14.2071 -14.2071 -14.2069
   -14.2068 -14.2066 -14.2063 -14.2061 -14.2059 -14.2057 -14.2055 -14.2049
   -14.2047 -14.2046 -14.2043 -14.2043 -14.2037 -14.2031 -14.2028 -14.2025
   -14.1900 -14.1884 -14.1881 -14.1878 -14.1876 -14.1874 -14.1872 -14.1871
   -14.1868 -14.1867 -14.1864 -14.1863 -14.1861 -14.1860 -14.1858 -14.1857
   -14.1856 -14.1855 -14.1853 -14.1852 -14.1850 -14.1848 -14.1847 -14.1843
   -14.1840 -14.1839 -14.1835 -14.1835 -14.1833 -14.1830 -14.1829 -14.1827
   -14.1824 -14.1823 -14.1820 -14.1806 -14.1746 -14.1745 -14.1733 -14.1733
   -14.1732 -14.1731 -14.1729 -14.1727 -14.1724 -14.1723 -14.1723 -14.1721
   -14.1719 -14.1719 -14.1718 -14.1717 -14.1710 -14.1709 -14.1708 -14.1706
   -14.1705 -14.1702 -14.1696 -14.1695 -14.1692 -14.1691 -14.1684 -14.1682
   -14.1675 -14.1674 -14.1673 -14.1666 -14.1665 -14.1663 -14.1661 -14.1655
   -14.1653 -14.1651 -14.1648 -14.1647 -14.1646 -14.1643 -14.1637 -14.1631
   -14.1630 -14.1628 -14.1626 -14.1622 -14.1617 -14.1615 -14.1610 -14.1609
   -14.1606 -14.1600 -14.1596 -14.1591 -14.1589 -14.1587 -14.1586 -14.1585
   -14.1584 -14.1581 -14.1580 -14.1579 -14.1575 -14.1574 -14.1573 -14.1571
   -14.1569 -14.1565 -14.1560 -14.1558  -3.6094  -3.4623  -3.4622  -3.3471
    -3.2181  -3.2181  -3.0968  -3.0965  -3.0485  -2.9489  -2.9487  -2.9171
    -2.9168  -2.9153  -2.8934  -2.8931  -2.8140  -2.7844  -2.7704  -2.7702
    -2.7405  -2.7402  -2.7190  -2.6817  -2.6733  -2.6730  -2.6670  -2.6498
    -2.6226  -2.6225  -2.5703  -2.5582  -2.5579  -2.5383  -2.5370  -2.5366
     3.0539   3.0541   3.1587   3.1657   3.2827   3.2831   3.3588   3.4011
     3.4016   3.4504   3.4508   3.5122   3.5146   3.5620   3.5899   3.5901
     3.7038   3.7487   3.7489   3.8838   3.8840   4.1427   4.1430   4.1545
     4.1996   4.1999   4.2187   4.2191   4.2722   4.3762   4.3766   4.3918
     4.3920   4.4292   4.5312   4.6435   4.6440   4.6665   4.6994   4.8174
     4.8646   4.8674   4.9607   4.9610   5.0144   5.2473   5.2944   5.2946
     5.3509   5.3511   5.4145   5.4292   5.4295   5.4882   5.4885   5.5147
     5.5149   5.7380   5.7383   5.7875   5.8293   5.9123   5.9127   5.9783
     6.0209   6.0210   6.0483   6.1498   6.1501   6.2233   6.2649   6.2651
     6.2719   6.4004   6.4009   6.5279   6.5368   6.5370   6.5612   6.5615
     6.5662   6.5778   6.5781   6.6213   6.6216   6.6572   6.6573   6.6719
     6.6723   6.7694   6.7828   6.7830   6.8160   6.8164   6.8393   6.8511
     6.8845   6.9221   6.9224   6.9569   7.0186   7.0908   7.4051   7.4054
     7.5794   7.5799   7.6049   7.9044   8.6467   8.6469   8.6477   8.6479
     8.7039   8.7491   9.1215   9.1608   9.1613   9.2496   9.2501   9.3421
     9.4156   9.4159   9.4273   9.4274   9.4934   9.5403   9.6214   9.6218
     9.8075   9.8079   9.8344   9.8525   9.8784   9.9947  10.0285  10.0287
    10.1159  10.1160  10.1198  10.1199  10.1411  10.1413  10.2142  10.2624
    10.2625  10.2921  10.2923  10.3618  10.3699  10.4085  10.4090  10.5885
    10.5886  10.7088  10.8410  10.8412  10.8565  10.8726  10.9064  10.9674
    10.9679  10.9919  10.9953  10.9955  11.0719  11.0721  11.0919  11.1399
    11.1401  11.1867  11.1967  11.2175  11.2392  11.2698  11.2700  11.2928
    11.2931  11.3426  11.3427  11.3436  11.3440  11.3757  11.3761  11.5731
    11.6088  11.8017  11.9139  11.9142  11.9174  11.9177  11.9592  11.9785
    11.9811  11.9893  12.0018  12.0022  12.0720  12.0723  12.0959  12.0962
    12.1042  12.1045  12.1136  12.1588  12.3160  12.3811  12.3845  12.4207
    12.4209  12.4435  12.5111  12.5315  12.5318  12.6120  12.6124  12.6622

     occupation numbers 
     1.0000   1.0000   1.0000   1.0000   1.0000   1.0000   1.0000   1.0000
     1.0000   1.0000   1.0000   1.0000   1.0000   1.0000   1.0000   1.0000
     1.0000   1.0000   1.0000   1.0000   1.0000   1.0000   1.0000   1.0000
     1.0000   1.0000   1.0000   1.0000   1.0000   1.0000   1.0000   1.0000
     1.0000   1.0000   1.0000   1.0000   1.0000   1.0000   1.0000   1.0000
     1.0000   1.0000   1.0000   1.0000   1.0000   1.0000   1.0000   1.0000
     1.0000   1.0000   1.0000   1.0000   1.0000   1.0000   1.0000   1.0000
     1.0000   1.0000   1.0000   1.0000   1.0000   1.0000   1.0000   1.0000
     1.0000   1.0000   1.0000   1.0000   1.0000   1.0000   1.0000   1.0000
     1.0000   1.0000   1.0000   1.0000   1.0000   1.0000   1.0000   1.0000
     1.0000   1.0000   1.0000   1.0000   1.0000   1.0000   1.0000   1.0000
     1.0000   1.0000   1.0000   1.0000   1.0000   1.0000   1.0000   1.0000
     1.0000   1.0000   1.0000   1.0000   1.0000   1.0000   1.0000   1.0000
     1.0000   1.0000   1.0000   1.0000   1.0000   1.0000   1.0000   1.0000
     1.0000   1.0000   1.0000   1.0000   1.0000   1.0000   1.0000   1.0000
     1.0000   1.0000   1.0000   1.0000   1.0000   1.0000   1.0000   1.0000
     1.0000   1.0000   1.0000   1.0000   1.0000   1.0000   1.0000   1.0000
     1.0000   1.0000   1.0000   1.0000   1.0000   1.0000   1.0000   1.0000
     1.0000   1.0000   1.0000   1.0000   1.0000   1.0000   1.0000   1.0000
     1.0000   1.0000   1.0000   1.0000   1.0000   1.0000   1.0000   1.0000
     1.0000   1.0000   1.0000   1.0000   1.0000   1.0000   1.0000   1.0000
     1.0000   1.0000   1.0000   1.0000   1.0000   1.0000   1.0000   1.0000
     1.0000   1.0000   1.0000   1.0000   1.0000   1.0000   1.0000   1.0000
     1.0000   1.0000   1.0000   1.0000   1.0000   1.0000   1.0000   1.0000
     1.0000   1.0000   1.0000   1.0000   1.0000   1.0000   1.0000   1.0000
     1.0000   1.0000   1.0000   1.0000   1.0000   1.0000   1.0000   1.0000
     1.0000   1.0000   1.0000   1.0000   1.0000   1.0000   1.0000   1.0000
     1.0000   1.0000   1.0000   1.0000   1.0000   1.0000   1.0000   1.0000
     1.0000   1.0000   1.0000   1.0000   1.0000   1.0000   1.0000   1.0000
     1.0000   1.0000   1.0000   1.0000   1.0000   1.0000   1.0000   1.0000
     1.0000   1.0000   1.0000   1.0000   1.0000   1.0000   1.0000   1.0000
     1.0000   1.0000   1.0000   1.0000   1.0000   1.0000   1.0000   1.0000
     1.0000   1.0000   1.0000   1.0000   1.0000   1.0000   1.0000   1.0000
     1.0000   1.0000   1.0000   1.0000   1.0000   1.0000   1.0000   1.0000
     1.0000   1.0000   1.0000   1.0000   1.0000   1.0000   1.0000   1.0000
     1.0000   1.0000   1.0000   1.0000   1.0000   1.0000   1.0000   1.0000
     1.0000   1.0000   1.0000   1.0000   1.0000   1.0000   1.0000   1.0000
     1.0000   1.0000   1.0000   1.0000   1.0000   1.0000   1.0000   1.0000
     1.0000   1.0000   1.0000   1.0000   1.0000   1.0000   1.0000   1.0000
     1.0000   1.0000   1.0000   1.0000   1.0000   1.0000   1.0000   1.0000
     1.0000   1.0000   1.0000   1.0000   1.0000   1.0000   1.0000   1.0000
     1.0000   1.0000   1.0000   1.0000   1.0000   1.0000   1.0000   1.0000
     1.0000   1.0000   1.0000   1.0000   1.0000   1.0000   1.0000   1.0000
     1.0000   1.0000   1.0000   1.0000   1.0000   1.0000   1.0000   1.0000
     1.0000   1.0000   1.0000   1.0000   1.0000   1.0000   1.0000   1.0000
     1.0000   1.0000   1.0000   1.0000   1.0000   1.0000   1.0000   1.0000
     1.0000   1.0000   1.0000   1.0000   1.0000   1.0000   1.0000   1.0000
     1.0000   1.0000   1.0000   1.0000   1.0000   1.0000   1.0000   1.0000
     1.0000   1.0000   1.0000   1.0000   1.0000   1.0000   1.0000   1.0000
     1.0000   1.0000   1.0000   1.0000   1.0000   1.0000   1.0000   1.0000
     1.0000   1.0000   1.0000   1.0000   1.0000   1.0000   1.0000   1.0000
     1.0000   1.0000   1.0000   1.0000   1.0000   1.0000   1.0000   1.0000
     1.0000   1.0000   1.0000   1.0000   1.0000   1.0000   1.0000   1.0000
     1.0000   1.0000   1.0000   1.0000   1.0000   1.0000   1.0000   1.0000
     1.0000   1.0000   1.0000   1.0000   1.0000   1.0000   1.0000   1.0000
     1.0000   1.0000   1.0000   1.0000   1.0000   1.0000   1.0000   1.0000
     1.0000   1.0000   1.0000   1.0000   1.0000   1.0000   1.0000   1.0000
     1.0000   1.0000   1.0000   1.0000   1.0000   1.0000   1.0000   1.0000
     1.0000   1.0000   1.0000   1.0000   1.0000   1.0000   1.0000   1.0000
     1.0000   1.0000   1.0000   1.0000   1.0000   1.0000   1.0000   1.0000
     1.0000   1.0000   1.0000   1.0000   1.0000   1.0000   1.0000   1.0000
     1.0000   1.0000   1.0000   1.0000   1.0000   1.0000   1.0000   1.0000
     1.0000   1.0000   1.0000   1.0000   1.0000   1.0000   1.0000   1.0000
     1.0000   1.0000   1.0000   1.0000   1.0000   1.0000   1.0000   1.0000
     1.0000   1.0000   1.0000   1.0000   1.0000   1.0000   1.0000   1.0000
     1.0000   1.0000   1.0000   1.0000   1.0000   1.0000   1.0000   1.0000
     1.0000   1.0000   1.0000   1.0000   1.0000   1.0000   1.0000   1.0000
     1.0001   1.0001   1.0004   0.8919  -0.0000  -0.0000  -0.0000  -0.0000
    -0.0000  -0.0000  -0.0000  -0.0000  -0.0000  -0.0000  -0.0000  -0.0000
    -0.0000  -0.0000  -0.0000  -0.0000  -0.0000  -0.0000  -0.0000  -0.0000
    -0.0000  -0.0000  -0.0000  -0.0000  -0.0000  -0.0000  -0.0000  -0.0000
    -0.0000  -0.0000  -0.0000  -0.0000  -0.0000  -0.0000  -0.0000  -0.0000
    -0.0000  -0.0000  -0.0000  -0.0000  -0.0000  -0.0000  -0.0000  -0.0000
    -0.0000  -0.0000  -0.0000  -0.0000  -0.0000  -0.0000  -0.0000  -0.0000
    -0.0000  -0.0000  -0.0000  -0.0000  -0.0000  -0.0000  -0.0000  -0.0000
    -0.0000  -0.0000  -0.0000  -0.0000  -0.0000  -0.0000  -0.0000  -0.0000
    -0.0000  -0.0000  -0.0000  -0.0000  -0.0000  -0.0000  -0.0000  -0.0000
    -0.0000  -0.0000  -0.0000  -0.0000  -0.0000  -0.0000  -0.0000  -0.0000
    -0.0000  -0.0000  -0.0000  -0.0000  -0.0000  -0.0000  -0.0000  -0.0000
    -0.0000  -0.0000  -0.0000  -0.0000  -0.0000  -0.0000  -0.0000  -0.0000
    -0.0000  -0.0000  -0.0000  -0.0000  -0.0000  -0.0000  -0.0000  -0.0000

          k =-0.2500-0.4330 0.2373 (554556 PWs)   bands (ev):

   -68.2859 -68.2855 -68.2851 -68.2849 -68.2847 -68.2846 -68.2846 -68.2846
   -68.2846 -68.2845 -68.2845 -68.2845 -68.2844 -68.2844 -68.2841 -68.2840
   -68.2838 -68.2835 -67.7455 -67.7452 -67.7450 -67.7447 -67.7445 -67.7444
   -67.7444 -67.7444 -67.7443 -67.7443 -67.7442 -67.7442 -67.7442 -67.7441
   -67.7441 -67.7441 -67.7440 -67.7440 -67.7439 -67.7438 -67.7438 -67.7437
   -67.7437 -67.7437 -67.7437 -67.7436 -67.7436 -67.7436 -67.7436 -67.7436
   -67.7434 -67.7434 -67.7434 -67.7433 -67.7433 -67.7428 -35.6969 -35.6966
   -35.6961 -35.6960 -35.6957 -35.6957 -35.6957 -35.6957 -35.6956 -35.6955
   -35.6955 -35.6955 -35.6955 -35.6954 -35.6952 -35.6950 -35.6949 -35.6946
   -35.6920 -35.6920 -35.6917 -35.6917 -35.6913 -35.6912 -35.6911 -35.6911
   -35.6908 -35.6908 -35.6908 -35.6908 -35.6908 -35.6908 -35.6907 -35.6907
   -35.6907 -35.6907 -35.6907 -35.6906 -35.6906 -35.6906 -35.6906 -35.6906
   -35.6906 -35.6906 -35.6905 -35.6905 -35.6903 -35.6903 -35.6902 -35.6901
   -35.6900 -35.6899 -35.6897 -35.6896 -35.1781 -35.1781 -35.1779 -35.1778
   -35.1777 -35.1777 -35.1775 -35.1775 -35.1774 -35.1774 -35.1774 -35.1774
   -35.1774 -35.1773 -35.1773 -35.1773 -35.1772 -35.1772 -35.1771 -35.1771
   -35.1771 -35.1770 -35.1770 -35.1770 -35.1770 -35.1770 -35.1770 -35.1769
   -35.1769 -35.1769 -35.1769 -35.1769 -35.1768 -35.1768 -35.1768 -35.1767
   -35.1763 -35.1762 -35.1760 -35.1760 -35.1759 -35.1759 -35.1758 -35.1758
   -35.1757 -35.1756 -35.1755 -35.1755 -35.1750 -35.1748 -35.1747 -35.1747
   -35.1744 -35.1742 -35.1711 -35.1710 -35.1709 -35.1708 -35.1708 -35.1707
   -35.1707 -35.1707 -35.1706 -35.1705 -35.1704 -35.1704 -35.1704 -35.1703
   -35.1703 -35.1703 -35.1703 -35.1702 -35.1702 -35.1702 -35.1700 -35.1699
   -35.1698 -35.1698 -35.1694 -35.1692 -35.1691 -35.1690 -35.1690 -35.1688
   -35.1688 -35.1687 -35.1687 -35.1686 -35.1686 -35.1685 -35.1685 -35.1685
   -35.1684 -35.1683 -35.1683 -35.1682 -35.1682 -35.1681 -35.1681 -35.1681
   -35.1681 -35.1681 -35.1681 -35.1680 -35.1680 -35.1680 -35.1680 -35.1676
   -14.2177 -14.2175 -14.2166 -14.2161 -14.2160 -14.2156 -14.2153 -14.2151
   -14.2150 -14.2147 -14.2146 -14.2145 -14.2144 -14.2141 -14.2139 -14.2138
   -14.2135 -14.2130 -14.2124 -14.2118 -14.2116 -14.2112 -14.2111 -14.2110
   -14.2109 -14.2106 -14.2104 -14.2104 -14.2103 -14.2103 -14.2101 -14.2100
   -14.2098 -14.2095 -14.2094 -14.2092 -14.2091 -14.2090 -14.2088 -14.2088
   -14.2087 -14.2086 -14.2083 -14.2082 -14.2081 -14.2080 -14.2079 -14.2078
   -14.2077 -14.2076 -14.2076 -14.2075 -14.2074 -14.2072 -14.2071 -14.2069
   -14.2067 -14.2066 -14.2062 -14.2060 -14.2059 -14.2054 -14.2053 -14.2049
   -14.2045 -14.2044 -14.2042 -14.2040 -14.2038 -14.2033 -14.2029 -14.2026
   -14.1900 -14.1883 -14.1880 -14.1878 -14.1876 -14.1873 -14.1872 -14.1870
   -14.1869 -14.1866 -14.1864 -14.1863 -14.1862 -14.1860 -14.1859 -14.1858
   -14.1856 -14.1855 -14.1853 -14.1853 -14.1850 -14.1849 -14.1847 -14.1843
   -14.1840 -14.1838 -14.1835 -14.1835 -14.1833 -14.1829 -14.1828 -14.1827
   -14.1823 -14.1823 -14.1820 -14.1806 -14.1746 -14.1745 -14.1734 -14.1733
   -14.1732 -14.1731 -14.1728 -14.1727 -14.1724 -14.1723 -14.1722 -14.1720
   -14.1719 -14.1718 -14.1716 -14.1715 -14.1711 -14.1710 -14.1709 -14.1706
   -14.1705 -14.1703 -14.1697 -14.1695 -14.1692 -14.1690 -14.1685 -14.1682
   -14.1678 -14.1673 -14.1671 -14.1667 -14.1665 -14.1663 -14.1660 -14.1655
   -14.1654 -14.1653 -14.1648 -14.1647 -14.1645 -14.1642 -14.1637 -14.1633
   -14.1630 -14.1628 -14.1626 -14.1622 -14.1618 -14.1616 -14.1610 -14.1608
   -14.1607 -14.1600 -14.1595 -14.1591 -14.1588 -14.1586 -14.1586 -14.1584
   -14.1582 -14.1581 -14.1580 -14.1578 -14.1576 -14.1575 -14.1573 -14.1571
   -14.1570 -14.1566 -14.1561 -14.1558  -3.5845  -3.4393  -3.4387  -3.4128
    -3.2796  -3.2787  -3.0797  -3.0787  -2.9681  -2.9623  -2.9604  -2.9025
    -2.8821  -2.8804  -2.8767  -2.8755  -2.8164  -2.8046  -2.8026  -2.7990
    -2.7424  -2.7225  -2.6935  -2.6912  -2.6587  -2.6578  -2.6458  -2.6416
    -2.6353  -2.6286  -2.5775  -2.5700  -2.5678  -2.5585  -2.5570  -2.5508
     3.0496   3.0837   3.1799   3.2115   3.2402   3.2623   3.3181   3.4617
     3.4815   3.5284   3.5292   3.5306   3.5619   3.6036   3.6216   3.6479
     3.6908   3.7025   3.7570   3.8555   3.8857   3.9194   3.9297   3.9768
     3.9781   3.9965   4.0591   4.0714   4.1210   4.1539   4.5997   4.6418
     4.6618   4.6693   4.6757   4.6988   4.7445   4.7514   4.8222   4.8341
     4.9509   4.9596   5.0221   5.1219   5.2362   5.2430   5.2491   5.3210
     5.3436   5.3545   5.3667   5.3794   5.3901   5.4139   5.4731   5.5107
     5.5546   5.7347   5.7372   5.7858   5.7876   5.8655   5.9110   5.9341
     5.9825   6.0234   6.0780   6.0957   6.1140   6.1431   6.1669   6.1877
     6.1918   6.1927   6.2496   6.2533   6.3218   6.3447   6.3622   6.3735
     6.4012   6.4415   6.4508   6.4548   6.7230   6.7725   6.7987   6.8133
     6.8192   6.8486   6.8587   6.8688   6.9574   6.9582   6.9984   7.0290
     7.0315   7.0989   7.1192   7.1214   7.1416   7.2376   7.2999   7.3304
     7.5505   7.5915   7.5968   7.7856   8.3091   8.5837   8.6148   8.6709
     8.8867   8.8943   8.9656   9.1036   9.2169   9.2207   9.3438   9.3581
     9.3586   9.4248   9.5225   9.5737   9.5742   9.5982   9.6570   9.6624
     9.7838   9.7878   9.8813   9.9335   9.9343   9.9543   9.9680  10.0069
    10.0479  10.0619  10.0714  10.2325  10.2412  10.2703  10.2721  10.2808
    10.2859  10.3863  10.4403  10.4480  10.4483  10.4802  10.4849  10.5268
    10.5788  10.6267  10.6606  10.6667  10.7292  10.7436  10.7521  10.7539
    10.7958  10.8334  10.8634  10.9348  11.0029  11.0048  11.0081  11.0917
    11.1778  11.2173  11.2555  11.2713  11.3010  11.3331  11.3479  11.3590
    11.3678  11.3805  11.4175  11.5081  11.5471  11.5624  11.5707  11.5725
    11.6068  11.6082  11.6200  11.6303  11.6449  11.7676  11.8264  11.8290
    11.8401  11.8632  11.8853  11.9041  11.9708  12.1094  12.1174  12.1409
    12.1526  12.1560  12.1579  12.2475  12.2674  12.3482  12.3524  12.3795
    12.3945  12.4221  12.4935  12.5224  12.5657  12.5962  12.5971  12.7028

     occupation numbers 
     1.0000   1.0000   1.0000   1.0000   1.0000   1.0000   1.0000   1.0000
     1.0000   1.0000   1.0000   1.0000   1.0000   1.0000   1.0000   1.0000
     1.0000   1.0000   1.0000   1.0000   1.0000   1.0000   1.0000   1.0000
     1.0000   1.0000   1.0000   1.0000   1.0000   1.0000   1.0000   1.0000
     1.0000   1.0000   1.0000   1.0000   1.0000   1.0000   1.0000   1.0000
     1.0000   1.0000   1.0000   1.0000   1.0000   1.0000   1.0000   1.0000
     1.0000   1.0000   1.0000   1.0000   1.0000   1.0000   1.0000   1.0000
     1.0000   1.0000   1.0000   1.0000   1.0000   1.0000   1.0000   1.0000
     1.0000   1.0000   1.0000   1.0000   1.0000   1.0000   1.0000   1.0000
     1.0000   1.0000   1.0000   1.0000   1.0000   1.0000   1.0000   1.0000
     1.0000   1.0000   1.0000   1.0000   1.0000   1.0000   1.0000   1.0000
     1.0000   1.0000   1.0000   1.0000   1.0000   1.0000   1.0000   1.0000
     1.0000   1.0000   1.0000   1.0000   1.0000   1.0000   1.0000   1.0000
     1.0000   1.0000   1.0000   1.0000   1.0000   1.0000   1.0000   1.0000
     1.0000   1.0000   1.0000   1.0000   1.0000   1.0000   1.0000   1.0000
     1.0000   1.0000   1.0000   1.0000   1.0000   1.0000   1.0000   1.0000
     1.0000   1.0000   1.0000   1.0000   1.0000   1.0000   1.0000   1.0000
     1.0000   1.0000   1.0000   1.0000   1.0000   1.0000   1.0000   1.0000
     1.0000   1.0000   1.0000   1.0000   1.0000   1.0000   1.0000   1.0000
     1.0000   1.0000   1.0000   1.0000   1.0000   1.0000   1.0000   1.0000
     1.0000   1.0000   1.0000   1.0000   1.0000   1.0000   1.0000   1.0000
     1.0000   1.0000   1.0000   1.0000   1.0000   1.0000   1.0000   1.0000
     1.0000   1.0000   1.0000   1.0000   1.0000   1.0000   1.0000   1.0000
     1.0000   1.0000   1.0000   1.0000   1.0000   1.0000   1.0000   1.0000
     1.0000   1.0000   1.0000   1.0000   1.0000   1.0000   1.0000   1.0000
     1.0000   1.0000   1.0000   1.0000   1.0000   1.0000   1.0000   1.0000
     1.0000   1.0000   1.0000   1.0000   1.0000   1.0000   1.0000   1.0000
     1.0000   1.0000   1.0000   1.0000   1.0000   1.0000   1.0000   1.0000
     1.0000   1.0000   1.0000   1.0000   1.0000   1.0000   1.0000   1.0000
     1.0000   1.0000   1.0000   1.0000   1.0000   1.0000   1.0000   1.0000
     1.0000   1.0000   1.0000   1.0000   1.0000   1.0000   1.0000   1.0000
     1.0000   1.0000   1.0000   1.0000   1.0000   1.0000   1.0000   1.0000
     1.0000   1.0000   1.0000   1.0000   1.0000   1.0000   1.0000   1.0000
     1.0000   1.0000   1.0000   1.0000   1.0000   1.0000   1.0000   1.0000
     1.0000   1.0000   1.0000   1.0000   1.0000   1.0000   1.0000   1.0000
     1.0000   1.0000   1.0000   1.0000   1.0000   1.0000   1.0000   1.0000
     1.0000   1.0000   1.0000   1.0000   1.0000   1.0000   1.0000   1.0000
     1.0000   1.0000   1.0000   1.0000   1.0000   1.0000   1.0000   1.0000
     1.0000   1.0000   1.0000   1.0000   1.0000   1.0000   1.0000   1.0000
     1.0000   1.0000   1.0000   1.0000   1.0000   1.0000   1.0000   1.0000
     1.0000   1.0000   1.0000   1.0000   1.0000   1.0000   1.0000   1.0000
     1.0000   1.0000   1.0000   1.0000   1.0000   1.0000   1.0000   1.0000
     1.0000   1.0000   1.0000   1.0000   1.0000   1.0000   1.0000   1.0000
     1.0000   1.0000   1.0000   1.0000   1.0000   1.0000   1.0000   1.0000
     1.0000   1.0000   1.0000   1.0000   1.0000   1.0000   1.0000   1.0000
     1.0000   1.0000   1.0000   1.0000   1.0000   1.0000   1.0000   1.0000
     1.0000   1.0000   1.0000   1.0000   1.0000   1.0000   1.0000   1.0000
     1.0000   1.0000   1.0000   1.0000   1.0000   1.0000   1.0000   1.0000
     1.0000   1.0000   1.0000   1.0000   1.0000   1.0000   1.0000   1.0000
     1.0000   1.0000   1.0000   1.0000   1.0000   1.0000   1.0000   1.0000
     1.0000   1.0000   1.0000   1.0000   1.0000   1.0000   1.0000   1.0000
     1.0000   1.0000   1.0000   1.0000   1.0000   1.0000   1.0000   1.0000
     1.0000   1.0000   1.0000   1.0000   1.0000   1.0000   1.0000   1.0000
     1.0000   1.0000   1.0000   1.0000   1.0000   1.0000   1.0000   1.0000
     1.0000   1.0000   1.0000   1.0000   1.0000   1.0000   1.0000   1.0000
     1.0000   1.0000   1.0000   1.0000   1.0000   1.0000   1.0000   1.0000
     1.0000   1.0000   1.0000   1.0000   1.0000   1.0000   1.0000   1.0000
     1.0000   1.0000   1.0000   1.0000   1.0000   1.0000   1.0000   1.0000
     1.0000   1.0000   1.0000   1.0000   1.0000   1.0000   1.0000   1.0000
     1.0000   1.0000   1.0000   1.0000   1.0000   1.0000   1.0000   1.0000
     1.0000   1.0000   1.0000   1.0000   1.0000   1.0000   1.0000   1.0000
     1.0000   1.0000   1.0000   1.0000   1.0000   1.0000   1.0000   1.0000
     1.0000   1.0000   1.0000   1.0000   1.0000   1.0000   1.0000   1.0000
     1.0000   1.0000   1.0000   1.0000   1.0000   1.0000   1.0000   1.0000
     1.0000   1.0000   1.0000   1.0000   1.0000   1.0000   1.0000   1.0000
     1.0000   1.0000   1.0000   1.0000   1.0000   1.0000   1.0000   1.0000
     1.0000   1.0000   1.0000   1.0000   1.0000   1.0000   1.0000   1.0000
     1.0000   1.0002   1.0003   1.0312  -0.0016  -0.0000  -0.0000  -0.0000
    -0.0000  -0.0000  -0.0000  -0.0000  -0.0000  -0.0000  -0.0000  -0.0000
    -0.0000  -0.0000  -0.0000  -0.0000  -0.0000  -0.0000  -0.0000  -0.0000
    -0.0000  -0.0000  -0.0000  -0.0000  -0.0000  -0.0000  -0.0000  -0.0000
    -0.0000  -0.0000  -0.0000  -0.0000  -0.0000  -0.0000  -0.0000  -0.0000
    -0.0000  -0.0000  -0.0000  -0.0000  -0.0000  -0.0000  -0.0000  -0.0000
    -0.0000  -0.0000  -0.0000  -0.0000  -0.0000  -0.0000  -0.0000  -0.0000
    -0.0000  -0.0000  -0.0000  -0.0000  -0.0000  -0.0000  -0.0000  -0.0000
    -0.0000  -0.0000  -0.0000  -0.0000  -0.0000  -0.0000  -0.0000  -0.0000
    -0.0000  -0.0000  -0.0000  -0.0000  -0.0000  -0.0000  -0.0000  -0.0000
    -0.0000  -0.0000  -0.0000  -0.0000  -0.0000  -0.0000  -0.0000  -0.0000
    -0.0000  -0.0000  -0.0000  -0.0000  -0.0000  -0.0000  -0.0000  -0.0000
    -0.0000  -0.0000  -0.0000  -0.0000  -0.0000  -0.0000  -0.0000  -0.0000
    -0.0000  -0.0000  -0.0000  -0.0000  -0.0000  -0.0000  -0.0000  -0.0000

          k =-0.2500 0.4330-0.2373 (554556 PWs)   bands (ev):

   -68.2859 -68.2855 -68.2851 -68.2849 -68.2847 -68.2846 -68.2846 -68.2846
   -68.2846 -68.2845 -68.2845 -68.2845 -68.2844 -68.2844 -68.2841 -68.2840
   -68.2838 -68.2835 -67.7455 -67.7452 -67.7450 -67.7447 -67.7445 -67.7444
   -67.7444 -67.7444 -67.7443 -67.7443 -67.7442 -67.7442 -67.7442 -67.7441
   -67.7441 -67.7441 -67.7440 -67.7440 -67.7439 -67.7438 -67.7438 -67.7437
   -67.7437 -67.7437 -67.7437 -67.7437 -67.7436 -67.7436 -67.7436 -67.7435
   -67.7434 -67.7434 -67.7434 -67.7433 -67.7433 -67.7428 -35.6969 -35.6966
   -35.6961 -35.6960 -35.6957 -35.6957 -35.6957 -35.6957 -35.6956 -35.6955
   -35.6955 -35.6955 -35.6955 -35.6954 -35.6952 -35.6950 -35.6949 -35.6946
   -35.6920 -35.6920 -35.6917 -35.6917 -35.6913 -35.6912 -35.6911 -35.6911
   -35.6908 -35.6908 -35.6908 -35.6908 -35.6908 -35.6908 -35.6907 -35.6907
   -35.6907 -35.6907 -35.6907 -35.6906 -35.6906 -35.6906 -35.6906 -35.6906
   -35.6906 -35.6905 -35.6905 -35.6905 -35.6903 -35.6903 -35.6902 -35.6901
   -35.6900 -35.6899 -35.6897 -35.6896 -35.1781 -35.1781 -35.1779 -35.1778
   -35.1777 -35.1777 -35.1775 -35.1775 -35.1774 -35.1774 -35.1774 -35.1774
   -35.1774 -35.1773 -35.1773 -35.1773 -35.1772 -35.1772 -35.1771 -35.1771
   -35.1771 -35.1771 -35.1770 -35.1770 -35.1770 -35.1770 -35.1770 -35.1769
   -35.1769 -35.1769 -35.1769 -35.1769 -35.1768 -35.1768 -35.1768 -35.1766
   -35.1762 -35.1762 -35.1760 -35.1760 -35.1759 -35.1758 -35.1758 -35.1758
   -35.1757 -35.1756 -35.1755 -35.1755 -35.1750 -35.1748 -35.1747 -35.1747
   -35.1744 -35.1742 -35.1712 -35.1710 -35.1709 -35.1708 -35.1708 -35.1707
   -35.1707 -35.1706 -35.1706 -35.1704 -35.1704 -35.1704 -35.1704 -35.1704
   -35.1703 -35.1703 -35.1703 -35.1702 -35.1702 -35.1702 -35.1701 -35.1699
   -35.1698 -35.1698 -35.1694 -35.1692 -35.1691 -35.1690 -35.1690 -35.1689
   -35.1688 -35.1687 -35.1686 -35.1686 -35.1686 -35.1685 -35.1685 -35.1685
   -35.1683 -35.1683 -35.1683 -35.1682 -35.1682 -35.1682 -35.1681 -35.1681
   -35.1681 -35.1681 -35.1681 -35.1680 -35.1680 -35.1680 -35.1680 -35.1676
   -14.2179 -14.2172 -14.2166 -14.2162 -14.2160 -14.2157 -14.2153 -14.2151
   -14.2150 -14.2147 -14.2147 -14.2145 -14.2144 -14.2141 -14.2140 -14.2138
   -14.2136 -14.2130 -14.2122 -14.2119 -14.2116 -14.2113 -14.2112 -14.2110
   -14.2109 -14.2106 -14.2105 -14.2104 -14.2103 -14.2102 -14.2101 -14.2099
   -14.2097 -14.2096 -14.2094 -14.2092 -14.2091 -14.2090 -14.2089 -14.2087
   -14.2086 -14.2085 -14.2084 -14.2082 -14.2081 -14.2080 -14.2079 -14.2078
   -14.2077 -14.2077 -14.2076 -14.2074 -14.2074 -14.2072 -14.2071 -14.2069
   -14.2067 -14.2066 -14.2063 -14.2061 -14.2058 -14.2055 -14.2053 -14.2048
   -14.2046 -14.2044 -14.2043 -14.2040 -14.2037 -14.2033 -14.2029 -14.2026
   -14.1900 -14.1884 -14.1880 -14.1878 -14.1876 -14.1873 -14.1872 -14.1871
   -14.1869 -14.1865 -14.1864 -14.1863 -14.1862 -14.1860 -14.1858 -14.1858
   -14.1856 -14.1855 -14.1854 -14.1852 -14.1850 -14.1849 -14.1847 -14.1844
   -14.1841 -14.1837 -14.1836 -14.1834 -14.1833 -14.1829 -14.1828 -14.1826
   -14.1824 -14.1821 -14.1821 -14.1806 -14.1746 -14.1745 -14.1735 -14.1733
   -14.1732 -14.1731 -14.1727 -14.1726 -14.1724 -14.1723 -14.1721 -14.1720
   -14.1719 -14.1718 -14.1716 -14.1715 -14.1712 -14.1710 -14.1709 -14.1707
   -14.1704 -14.1703 -14.1697 -14.1695 -14.1692 -14.1690 -14.1684 -14.1682
   -14.1679 -14.1673 -14.1670 -14.1667 -14.1664 -14.1662 -14.1659 -14.1656
   -14.1655 -14.1653 -14.1648 -14.1647 -14.1645 -14.1642 -14.1636 -14.1633
   -14.1630 -14.1629 -14.1625 -14.1623 -14.1619 -14.1615 -14.1609 -14.1609
   -14.1608 -14.1600 -14.1594 -14.1591 -14.1588 -14.1587 -14.1586 -14.1584
   -14.1582 -14.1581 -14.1580 -14.1578 -14.1576 -14.1574 -14.1573 -14.1572
   -14.1570 -14.1566 -14.1561 -14.1559  -3.5845  -3.4393  -3.4387  -3.4128
    -3.2796  -3.2787  -3.0797  -3.0788  -2.9681  -2.9623  -2.9605  -2.9025
    -2.8821  -2.8803  -2.8767  -2.8755  -2.8164  -2.8046  -2.8027  -2.7990
    -2.7424  -2.7225  -2.6935  -2.6912  -2.6587  -2.6578  -2.6458  -2.6416
    -2.6353  -2.6287  -2.5775  -2.5701  -2.5678  -2.5585  -2.5571  -2.5507
     3.0496   3.0836   3.1799   3.2113   3.2402   3.2624   3.3182   3.4618
     3.4815   3.5279   3.5291   3.5304   3.5619   3.6040   3.6214   3.6481
     3.6907   3.7025   3.7573   3.8557   3.8859   3.9196   3.9294   3.9768
     3.9781   3.9965   4.0590   4.0711   4.1213   4.1541   4.5999   4.6417
     4.6621   4.6690   4.6759   4.6986   4.7444   4.7516   4.8224   4.8341
     4.9509   4.9595   5.0222   5.1219   5.2359   5.2429   5.2490   5.3212
     5.3436   5.3548   5.3670   5.3792   5.3899   5.4139   5.4733   5.5106
     5.5544   5.7347   5.7369   5.7858   5.7878   5.8653   5.9107   5.9343
     5.9827   6.0235   6.0778   6.0957   6.1137   6.1430   6.1671   6.1878
     6.1917   6.1926   6.2497   6.2531   6.3217   6.3447   6.3620   6.3733
     6.4014   6.4412   6.4506   6.4547   6.7231   6.7728   6.7986   6.8135
     6.8191   6.8485   6.8589   6.8689   6.9574   6.9581   6.9986   7.0293
     7.0315   7.0988   7.1193   7.1213   7.1415   7.2380   7.2996   7.3305
     7.5507   7.5915   7.5969   7.7856   8.3091   8.5837   8.6149   8.6709
     8.8866   8.8945   8.9657   9.1037   9.2167   9.2207   9.3438   9.3581
     9.3586   9.4248   9.5227   9.5736   9.5741   9.5981   9.6570   9.6627
     9.7838   9.7879   9.8813   9.9335   9.9343   9.9546   9.9679  10.0068
    10.0477  10.0620  10.0714  10.2326  10.2411  10.2703  10.2723  10.2806
    10.2858  10.3862  10.4405  10.4483  10.4484  10.4801  10.4850  10.5269
    10.5789  10.6264  10.6606  10.6666  10.7293  10.7434  10.7520  10.7537
    10.7956  10.8335  10.8633  10.9350  11.0028  11.0047  11.0082  11.0915
    11.1777  11.2172  11.2558  11.2712  11.3006  11.3332  11.3478  11.3589
    11.3677  11.3804  11.4178  11.5081  11.5471  11.5623  11.5708  11.5724
    11.6069  11.6080  11.6200  11.6304  11.6449  11.7676  11.8265  11.8292
    11.8404  11.8633  11.8854  11.9040  11.9710  12.1098  12.1171  12.1413
    12.1526  12.1563  12.1579  12.2473  12.2676  12.3482  12.3525  12.3793
    12.3947  12.4216  12.4929  12.5221  12.5656  12.5961  12.5972  12.7025

     occupation numbers 
     1.0000   1.0000   1.0000   1.0000   1.0000   1.0000   1.0000   1.0000
     1.0000   1.0000   1.0000   1.0000   1.0000   1.0000   1.0000   1.0000
     1.0000   1.0000   1.0000   1.0000   1.0000   1.0000   1.0000   1.0000
     1.0000   1.0000   1.0000   1.0000   1.0000   1.0000   1.0000   1.0000
     1.0000   1.0000   1.0000   1.0000   1.0000   1.0000   1.0000   1.0000
     1.0000   1.0000   1.0000   1.0000   1.0000   1.0000   1.0000   1.0000
     1.0000   1.0000   1.0000   1.0000   1.0000   1.0000   1.0000   1.0000
     1.0000   1.0000   1.0000   1.0000   1.0000   1.0000   1.0000   1.0000
     1.0000   1.0000   1.0000   1.0000   1.0000   1.0000   1.0000   1.0000
     1.0000   1.0000   1.0000   1.0000   1.0000   1.0000   1.0000   1.0000
     1.0000   1.0000   1.0000   1.0000   1.0000   1.0000   1.0000   1.0000
     1.0000   1.0000   1.0000   1.0000   1.0000   1.0000   1.0000   1.0000
     1.0000   1.0000   1.0000   1.0000   1.0000   1.0000   1.0000   1.0000
     1.0000   1.0000   1.0000   1.0000   1.0000   1.0000   1.0000   1.0000
     1.0000   1.0000   1.0000   1.0000   1.0000   1.0000   1.0000   1.0000
     1.0000   1.0000   1.0000   1.0000   1.0000   1.0000   1.0000   1.0000
     1.0000   1.0000   1.0000   1.0000   1.0000   1.0000   1.0000   1.0000
     1.0000   1.0000   1.0000   1.0000   1.0000   1.0000   1.0000   1.0000
     1.0000   1.0000   1.0000   1.0000   1.0000   1.0000   1.0000   1.0000
     1.0000   1.0000   1.0000   1.0000   1.0000   1.0000   1.0000   1.0000
     1.0000   1.0000   1.0000   1.0000   1.0000   1.0000   1.0000   1.0000
     1.0000   1.0000   1.0000   1.0000   1.0000   1.0000   1.0000   1.0000
     1.0000   1.0000   1.0000   1.0000   1.0000   1.0000   1.0000   1.0000
     1.0000   1.0000   1.0000   1.0000   1.0000   1.0000   1.0000   1.0000
     1.0000   1.0000   1.0000   1.0000   1.0000   1.0000   1.0000   1.0000
     1.0000   1.0000   1.0000   1.0000   1.0000   1.0000   1.0000   1.0000
     1.0000   1.0000   1.0000   1.0000   1.0000   1.0000   1.0000   1.0000
     1.0000   1.0000   1.0000   1.0000   1.0000   1.0000   1.0000   1.0000
     1.0000   1.0000   1.0000   1.0000   1.0000   1.0000   1.0000   1.0000
     1.0000   1.0000   1.0000   1.0000   1.0000   1.0000   1.0000   1.0000
     1.0000   1.0000   1.0000   1.0000   1.0000   1.0000   1.0000   1.0000
     1.0000   1.0000   1.0000   1.0000   1.0000   1.0000   1.0000   1.0000
     1.0000   1.0000   1.0000   1.0000   1.0000   1.0000   1.0000   1.0000
     1.0000   1.0000   1.0000   1.0000   1.0000   1.0000   1.0000   1.0000
     1.0000   1.0000   1.0000   1.0000   1.0000   1.0000   1.0000   1.0000
     1.0000   1.0000   1.0000   1.0000   1.0000   1.0000   1.0000   1.0000
     1.0000   1.0000   1.0000   1.0000   1.0000   1.0000   1.0000   1.0000
     1.0000   1.0000   1.0000   1.0000   1.0000   1.0000   1.0000   1.0000
     1.0000   1.0000   1.0000   1.0000   1.0000   1.0000   1.0000   1.0000
     1.0000   1.0000   1.0000   1.0000   1.0000   1.0000   1.0000   1.0000
     1.0000   1.0000   1.0000   1.0000   1.0000   1.0000   1.0000   1.0000
     1.0000   1.0000   1.0000   1.0000   1.0000   1.0000   1.0000   1.0000
     1.0000   1.0000   1.0000   1.0000   1.0000   1.0000   1.0000   1.0000
     1.0000   1.0000   1.0000   1.0000   1.0000   1.0000   1.0000   1.0000
     1.0000   1.0000   1.0000   1.0000   1.0000   1.0000   1.0000   1.0000
     1.0000   1.0000   1.0000   1.0000   1.0000   1.0000   1.0000   1.0000
     1.0000   1.0000   1.0000   1.0000   1.0000   1.0000   1.0000   1.0000
     1.0000   1.0000   1.0000   1.0000   1.0000   1.0000   1.0000   1.0000
     1.0000   1.0000   1.0000   1.0000   1.0000   1.0000   1.0000   1.0000
     1.0000   1.0000   1.0000   1.0000   1.0000   1.0000   1.0000   1.0000
     1.0000   1.0000   1.0000   1.0000   1.0000   1.0000   1.0000   1.0000
     1.0000   1.0000   1.0000   1.0000   1.0000   1.0000   1.0000   1.0000
     1.0000   1.0000   1.0000   1.0000   1.0000   1.0000   1.0000   1.0000
     1.0000   1.0000   1.0000   1.0000   1.0000   1.0000   1.0000   1.0000
     1.0000   1.0000   1.0000   1.0000   1.0000   1.0000   1.0000   1.0000
     1.0000   1.0000   1.0000   1.0000   1.0000   1.0000   1.0000   1.0000
     1.0000   1.0000   1.0000   1.0000   1.0000   1.0000   1.0000   1.0000
     1.0000   1.0000   1.0000   1.0000   1.0000   1.0000   1.0000   1.0000
     1.0000   1.0000   1.0000   1.0000   1.0000   1.0000   1.0000   1.0000
     1.0000   1.0000   1.0000   1.0000   1.0000   1.0000   1.0000   1.0000
     1.0000   1.0000   1.0000   1.0000   1.0000   1.0000   1.0000   1.0000
     1.0000   1.0000   1.0000   1.0000   1.0000   1.0000   1.0000   1.0000
     1.0000   1.0000   1.0000   1.0000   1.0000   1.0000   1.0000   1.0000
     1.0000   1.0000   1.0000   1.0000   1.0000   1.0000   1.0000   1.0000
     1.0000   1.0000   1.0000   1.0000   1.0000   1.0000   1.0000   1.0000
     1.0000   1.0000   1.0000   1.0000   1.0000   1.0000   1.0000   1.0000
     1.0000   1.0000   1.0000   1.0000   1.0000   1.0000   1.0000   1.0000
     1.0000   1.0002   1.0003   1.0312  -0.0016  -0.0000  -0.0000  -0.0000
    -0.0000  -0.0000  -0.0000  -0.0000  -0.0000  -0.0000  -0.0000  -0.0000
    -0.0000  -0.0000  -0.0000  -0.0000  -0.0000  -0.0000  -0.0000  -0.0000
    -0.0000  -0.0000  -0.0000  -0.0000  -0.0000  -0.0000  -0.0000  -0.0000
    -0.0000  -0.0000  -0.0000  -0.0000  -0.0000  -0.0000  -0.0000  -0.0000
    -0.0000  -0.0000  -0.0000  -0.0000  -0.0000  -0.0000  -0.0000  -0.0000
    -0.0000  -0.0000  -0.0000  -0.0000  -0.0000  -0.0000  -0.0000  -0.0000
    -0.0000  -0.0000  -0.0000  -0.0000  -0.0000  -0.0000  -0.0000  -0.0000
    -0.0000  -0.0000  -0.0000  -0.0000  -0.0000  -0.0000  -0.0000  -0.0000
    -0.0000  -0.0000  -0.0000  -0.0000  -0.0000  -0.0000  -0.0000  -0.0000
    -0.0000  -0.0000  -0.0000  -0.0000  -0.0000  -0.0000  -0.0000  -0.0000
    -0.0000  -0.0000  -0.0000  -0.0000  -0.0000  -0.0000  -0.0000  -0.0000
    -0.0000  -0.0000  -0.0000  -0.0000  -0.0000  -0.0000  -0.0000  -0.0000
    -0.0000  -0.0000  -0.0000  -0.0000  -0.0000  -0.0000  -0.0000  -0.0000

          k = 0.2500-0.4330-0.2373 (554556 PWs)   bands (ev):

   -68.2859 -68.2855 -68.2851 -68.2849 -68.2847 -68.2846 -68.2846 -68.2846
   -68.2846 -68.2845 -68.2845 -68.2845 -68.2844 -68.2844 -68.2841 -68.2840
   -68.2838 -68.2835 -67.7455 -67.7452 -67.7450 -67.7447 -67.7445 -67.7444
   -67.7444 -67.7444 -67.7443 -67.7443 -67.7442 -67.7442 -67.7442 -67.7441
   -67.7441 -67.7441 -67.7440 -67.7440 -67.7439 -67.7438 -67.7438 -67.7437
   -67.7437 -67.7437 -67.7437 -67.7437 -67.7436 -67.7436 -67.7436 -67.7435
   -67.7434 -67.7434 -67.7434 -67.7433 -67.7433 -67.7428 -35.6969 -35.6966
   -35.6961 -35.6960 -35.6957 -35.6957 -35.6957 -35.6957 -35.6956 -35.6955
   -35.6955 -35.6955 -35.6955 -35.6954 -35.6952 -35.6950 -35.6949 -35.6946
   -35.6920 -35.6920 -35.6917 -35.6917 -35.6913 -35.6912 -35.6911 -35.6911
   -35.6908 -35.6908 -35.6908 -35.6908 -35.6908 -35.6908 -35.6907 -35.6907
   -35.6907 -35.6907 -35.6907 -35.6906 -35.6906 -35.6906 -35.6906 -35.6906
   -35.6906 -35.6905 -35.6905 -35.6905 -35.6903 -35.6903 -35.6902 -35.6901
   -35.6900 -35.6899 -35.6897 -35.6896 -35.1781 -35.1781 -35.1779 -35.1778
   -35.1777 -35.1777 -35.1775 -35.1775 -35.1774 -35.1774 -35.1774 -35.1774
   -35.1774 -35.1773 -35.1773 -35.1773 -35.1772 -35.1772 -35.1771 -35.1771
   -35.1771 -35.1771 -35.1770 -35.1770 -35.1770 -35.1770 -35.1770 -35.1769
   -35.1769 -35.1769 -35.1769 -35.1769 -35.1768 -35.1768 -35.1768 -35.1766
   -35.1762 -35.1762 -35.1760 -35.1760 -35.1759 -35.1758 -35.1758 -35.1758
   -35.1757 -35.1756 -35.1755 -35.1755 -35.1750 -35.1748 -35.1747 -35.1747
   -35.1744 -35.1742 -35.1712 -35.1710 -35.1709 -35.1708 -35.1708 -35.1707
   -35.1707 -35.1706 -35.1706 -35.1704 -35.1704 -35.1704 -35.1704 -35.1704
   -35.1703 -35.1703 -35.1703 -35.1702 -35.1702 -35.1702 -35.1701 -35.1699
   -35.1698 -35.1698 -35.1694 -35.1692 -35.1691 -35.1690 -35.1690 -35.1689
   -35.1688 -35.1687 -35.1686 -35.1686 -35.1686 -35.1685 -35.1685 -35.1685
   -35.1683 -35.1683 -35.1683 -35.1682 -35.1682 -35.1682 -35.1681 -35.1681
   -35.1681 -35.1681 -35.1681 -35.1680 -35.1680 -35.1680 -35.1680 -35.1676
   -14.2179 -14.2173 -14.2166 -14.2162 -14.2160 -14.2158 -14.2153 -14.2151
   -14.2150 -14.2147 -14.2147 -14.2145 -14.2143 -14.2141 -14.2140 -14.2138
   -14.2135 -14.2130 -14.2122 -14.2119 -14.2116 -14.2112 -14.2111 -14.2111
   -14.2109 -14.2106 -14.2105 -14.2104 -14.2103 -14.2102 -14.2101 -14.2100
   -14.2097 -14.2096 -14.2094 -14.2092 -14.2091 -14.2090 -14.2089 -14.2088
   -14.2086 -14.2085 -14.2084 -14.2082 -14.2081 -14.2080 -14.2079 -14.2078
   -14.2077 -14.2076 -14.2076 -14.2075 -14.2074 -14.2072 -14.2071 -14.2069
   -14.2067 -14.2066 -14.2063 -14.2061 -14.2058 -14.2055 -14.2052 -14.2049
   -14.2046 -14.2045 -14.2044 -14.2040 -14.2037 -14.2033 -14.2029 -14.2026
   -14.1900 -14.1884 -14.1879 -14.1878 -14.1876 -14.1873 -14.1872 -14.1871
   -14.1869 -14.1865 -14.1864 -14.1863 -14.1862 -14.1860 -14.1858 -14.1858
   -14.1856 -14.1855 -14.1854 -14.1852 -14.1850 -14.1849 -14.1847 -14.1844
   -14.1841 -14.1837 -14.1836 -14.1834 -14.1833 -14.1829 -14.1828 -14.1826
   -14.1824 -14.1821 -14.1821 -14.1806 -14.1746 -14.1745 -14.1735 -14.1733
   -14.1732 -14.1731 -14.1728 -14.1725 -14.1724 -14.1722 -14.1722 -14.1720
   -14.1719 -14.1718 -14.1716 -14.1715 -14.1712 -14.1710 -14.1709 -14.1707
   -14.1704 -14.1703 -14.1697 -14.1695 -14.1693 -14.1690 -14.1684 -14.1682
   -14.1679 -14.1673 -14.1670 -14.1667 -14.1664 -14.1661 -14.1660 -14.1656
   -14.1655 -14.1652 -14.1648 -14.1647 -14.1645 -14.1642 -14.1636 -14.1633
   -14.1630 -14.1629 -14.1625 -14.1623 -14.1619 -14.1615 -14.1609 -14.1609
   -14.1608 -14.1600 -14.1594 -14.1591 -14.1588 -14.1587 -14.1586 -14.1584
   -14.1582 -14.1581 -14.1580 -14.1578 -14.1576 -14.1574 -14.1573 -14.1572
   -14.1570 -14.1566 -14.1561 -14.1559  -3.5845  -3.4393  -3.4387  -3.4128
    -3.2796  -3.2787  -3.0797  -3.0788  -2.9682  -2.9623  -2.9605  -2.9025
    -2.8821  -2.8803  -2.8767  -2.8755  -2.8164  -2.8046  -2.8027  -2.7989
    -2.7424  -2.7225  -2.6935  -2.6912  -2.6587  -2.6578  -2.6458  -2.6416
    -2.6352  -2.6287  -2.5775  -2.5701  -2.5678  -2.5584  -2.5571  -2.5507
     3.0496   3.0837   3.1799   3.2114   3.2401   3.2623   3.3182   3.4618
     3.4815   3.5281   3.5292   3.5304   3.5617   3.6040   3.6214   3.6480
     3.6907   3.7024   3.7572   3.8557   3.8860   3.9196   3.9295   3.9769
     3.9780   3.9965   4.0589   4.0713   4.1213   4.1540   4.5999   4.6418
     4.6621   4.6691   4.6758   4.6987   4.7443   4.7516   4.8224   4.8341
     4.9508   4.9596   5.0221   5.1218   5.2361   5.2429   5.2489   5.3211
     5.3438   5.3548   5.3670   5.3793   5.3900   5.4138   5.4732   5.5107
     5.5544   5.7346   5.7370   5.7858   5.7877   5.8652   5.9108   5.9343
     5.9827   6.0234   6.0778   6.0956   6.1139   6.1429   6.1671   6.1879
     6.1917   6.1927   6.2496   6.2530   6.3218   6.3445   6.3621   6.3734
     6.4013   6.4413   6.4507   6.4547   6.7231   6.7728   6.7984   6.8135
     6.8192   6.8485   6.8588   6.8689   6.9575   6.9580   6.9986   7.0293
     7.0315   7.0989   7.1193   7.1213   7.1415   7.2379   7.2998   7.3304
     7.5507   7.5915   7.5968   7.7856   8.3091   8.5838   8.6148   8.6710
     8.8866   8.8945   8.9657   9.1037   9.2168   9.2207   9.3437   9.3581
     9.3587   9.4247   9.5227   9.5736   9.5742   9.5981   9.6571   9.6625
     9.7838   9.7879   9.8813   9.9335   9.9343   9.9546   9.9680  10.0068
    10.0477  10.0621  10.0714  10.2326  10.2411  10.2704  10.2722  10.2807
    10.2857  10.3863  10.4405  10.4482  10.4483  10.4800  10.4850  10.5268
    10.5789  10.6264  10.6608  10.6665  10.7293  10.7434  10.7519  10.7538
    10.7957  10.8335  10.8634  10.9349  11.0028  11.0048  11.0083  11.0915
    11.1777  11.2171  11.2558  11.2712  11.3007  11.3332  11.3478  11.3588
    11.3678  11.3803  11.4177  11.5081  11.5472  11.5623  11.5706  11.5725
    11.6068  11.6079  11.6200  11.6303  11.6449  11.7674  11.8267  11.8293
    11.8402  11.8633  11.8853  11.9041  11.9709  12.1097  12.1173  12.1413
    12.1526  12.1562  12.1580  12.2475  12.2676  12.3480  12.3524  12.3793
    12.3945  12.4216  12.4931  12.5221  12.5655  12.5960  12.5971  12.7028

     occupation numbers 
     1.0000   1.0000   1.0000   1.0000   1.0000   1.0000   1.0000   1.0000
     1.0000   1.0000   1.0000   1.0000   1.0000   1.0000   1.0000   1.0000
     1.0000   1.0000   1.0000   1.0000   1.0000   1.0000   1.0000   1.0000
     1.0000   1.0000   1.0000   1.0000   1.0000   1.0000   1.0000   1.0000
     1.0000   1.0000   1.0000   1.0000   1.0000   1.0000   1.0000   1.0000
     1.0000   1.0000   1.0000   1.0000   1.0000   1.0000   1.0000   1.0000
     1.0000   1.0000   1.0000   1.0000   1.0000   1.0000   1.0000   1.0000
     1.0000   1.0000   1.0000   1.0000   1.0000   1.0000   1.0000   1.0000
     1.0000   1.0000   1.0000   1.0000   1.0000   1.0000   1.0000   1.0000
     1.0000   1.0000   1.0000   1.0000   1.0000   1.0000   1.0000   1.0000
     1.0000   1.0000   1.0000   1.0000   1.0000   1.0000   1.0000   1.0000
     1.0000   1.0000   1.0000   1.0000   1.0000   1.0000   1.0000   1.0000
     1.0000   1.0000   1.0000   1.0000   1.0000   1.0000   1.0000   1.0000
     1.0000   1.0000   1.0000   1.0000   1.0000   1.0000   1.0000   1.0000
     1.0000   1.0000   1.0000   1.0000   1.0000   1.0000   1.0000   1.0000
     1.0000   1.0000   1.0000   1.0000   1.0000   1.0000   1.0000   1.0000
     1.0000   1.0000   1.0000   1.0000   1.0000   1.0000   1.0000   1.0000
     1.0000   1.0000   1.0000   1.0000   1.0000   1.0000   1.0000   1.0000
     1.0000   1.0000   1.0000   1.0000   1.0000   1.0000   1.0000   1.0000
     1.0000   1.0000   1.0000   1.0000   1.0000   1.0000   1.0000   1.0000
     1.0000   1.0000   1.0000   1.0000   1.0000   1.0000   1.0000   1.0000
     1.0000   1.0000   1.0000   1.0000   1.0000   1.0000   1.0000   1.0000
     1.0000   1.0000   1.0000   1.0000   1.0000   1.0000   1.0000   1.0000
     1.0000   1.0000   1.0000   1.0000   1.0000   1.0000   1.0000   1.0000
     1.0000   1.0000   1.0000   1.0000   1.0000   1.0000   1.0000   1.0000
     1.0000   1.0000   1.0000   1.0000   1.0000   1.0000   1.0000   1.0000
     1.0000   1.0000   1.0000   1.0000   1.0000   1.0000   1.0000   1.0000
     1.0000   1.0000   1.0000   1.0000   1.0000   1.0000   1.0000   1.0000
     1.0000   1.0000   1.0000   1.0000   1.0000   1.0000   1.0000   1.0000
     1.0000   1.0000   1.0000   1.0000   1.0000   1.0000   1.0000   1.0000
     1.0000   1.0000   1.0000   1.0000   1.0000   1.0000   1.0000   1.0000
     1.0000   1.0000   1.0000   1.0000   1.0000   1.0000   1.0000   1.0000
     1.0000   1.0000   1.0000   1.0000   1.0000   1.0000   1.0000   1.0000
     1.0000   1.0000   1.0000   1.0000   1.0000   1.0000   1.0000   1.0000
     1.0000   1.0000   1.0000   1.0000   1.0000   1.0000   1.0000   1.0000
     1.0000   1.0000   1.0000   1.0000   1.0000   1.0000   1.0000   1.0000
     1.0000   1.0000   1.0000   1.0000   1.0000   1.0000   1.0000   1.0000
     1.0000   1.0000   1.0000   1.0000   1.0000   1.0000   1.0000   1.0000
     1.0000   1.0000   1.0000   1.0000   1.0000   1.0000   1.0000   1.0000
     1.0000   1.0000   1.0000   1.0000   1.0000   1.0000   1.0000   1.0000
     1.0000   1.0000   1.0000   1.0000   1.0000   1.0000   1.0000   1.0000
     1.0000   1.0000   1.0000   1.0000   1.0000   1.0000   1.0000   1.0000
     1.0000   1.0000   1.0000   1.0000   1.0000   1.0000   1.0000   1.0000
     1.0000   1.0000   1.0000   1.0000   1.0000   1.0000   1.0000   1.0000
     1.0000   1.0000   1.0000   1.0000   1.0000   1.0000   1.0000   1.0000
     1.0000   1.0000   1.0000   1.0000   1.0000   1.0000   1.0000   1.0000
     1.0000   1.0000   1.0000   1.0000   1.0000   1.0000   1.0000   1.0000
     1.0000   1.0000   1.0000   1.0000   1.0000   1.0000   1.0000   1.0000
     1.0000   1.0000   1.0000   1.0000   1.0000   1.0000   1.0000   1.0000
     1.0000   1.0000   1.0000   1.0000   1.0000   1.0000   1.0000   1.0000
     1.0000   1.0000   1.0000   1.0000   1.0000   1.0000   1.0000   1.0000
     1.0000   1.0000   1.0000   1.0000   1.0000   1.0000   1.0000   1.0000
     1.0000   1.0000   1.0000   1.0000   1.0000   1.0000   1.0000   1.0000
     1.0000   1.0000   1.0000   1.0000   1.0000   1.0000   1.0000   1.0000
     1.0000   1.0000   1.0000   1.0000   1.0000   1.0000   1.0000   1.0000
     1.0000   1.0000   1.0000   1.0000   1.0000   1.0000   1.0000   1.0000
     1.0000   1.0000   1.0000   1.0000   1.0000   1.0000   1.0000   1.0000
     1.0000   1.0000   1.0000   1.0000   1.0000   1.0000   1.0000   1.0000
     1.0000   1.0000   1.0000   1.0000   1.0000   1.0000   1.0000   1.0000
     1.0000   1.0000   1.0000   1.0000   1.0000   1.0000   1.0000   1.0000
     1.0000   1.0000   1.0000   1.0000   1.0000   1.0000   1.0000   1.0000
     1.0000   1.0000   1.0000   1.0000   1.0000   1.0000   1.0000   1.0000
     1.0000   1.0000   1.0000   1.0000   1.0000   1.0000   1.0000   1.0000
     1.0000   1.0000   1.0000   1.0000   1.0000   1.0000   1.0000   1.0000
     1.0000   1.0000   1.0000   1.0000   1.0000   1.0000   1.0000   1.0000
     1.0000   1.0000   1.0000   1.0000   1.0000   1.0000   1.0000   1.0000
     1.0000   1.0000   1.0000   1.0000   1.0000   1.0000   1.0000   1.0000
     1.0000   1.0002   1.0003   1.0312  -0.0016  -0.0000  -0.0000  -0.0000
    -0.0000  -0.0000  -0.0000  -0.0000  -0.0000  -0.0000  -0.0000  -0.0000
    -0.0000  -0.0000  -0.0000  -0.0000  -0.0000  -0.0000  -0.0000  -0.0000
    -0.0000  -0.0000  -0.0000  -0.0000  -0.0000  -0.0000  -0.0000  -0.0000
    -0.0000  -0.0000  -0.0000  -0.0000  -0.0000  -0.0000  -0.0000  -0.0000
    -0.0000  -0.0000  -0.0000  -0.0000  -0.0000  -0.0000  -0.0000  -0.0000
    -0.0000  -0.0000  -0.0000  -0.0000  -0.0000  -0.0000  -0.0000  -0.0000
    -0.0000  -0.0000  -0.0000  -0.0000  -0.0000  -0.0000  -0.0000  -0.0000
    -0.0000  -0.0000  -0.0000  -0.0000  -0.0000  -0.0000  -0.0000  -0.0000
    -0.0000  -0.0000  -0.0000  -0.0000  -0.0000  -0.0000  -0.0000  -0.0000
    -0.0000  -0.0000  -0.0000  -0.0000  -0.0000  -0.0000  -0.0000  -0.0000
    -0.0000  -0.0000  -0.0000  -0.0000  -0.0000  -0.0000  -0.0000  -0.0000
    -0.0000  -0.0000  -0.0000  -0.0000  -0.0000  -0.0000  -0.0000  -0.0000
    -0.0000  -0.0000  -0.0000  -0.0000  -0.0000  -0.0000  -0.0000  -0.0000

          k = 0.5000 0.0000 0.2373 (554556 PWs)   bands (ev):

   -68.2859 -68.2855 -68.2851 -68.2849 -68.2847 -68.2846 -68.2846 -68.2846
   -68.2846 -68.2845 -68.2845 -68.2845 -68.2844 -68.2844 -68.2841 -68.2840
   -68.2838 -68.2835 -67.7455 -67.7452 -67.7450 -67.7447 -67.7445 -67.7444
   -67.7444 -67.7444 -67.7444 -67.7443 -67.7442 -67.7442 -67.7442 -67.7441
   -67.7441 -67.7441 -67.7440 -67.7440 -67.7439 -67.7438 -67.7438 -67.7437
   -67.7437 -67.7437 -67.7437 -67.7437 -67.7436 -67.7436 -67.7436 -67.7435
   -67.7434 -67.7434 -67.7434 -67.7433 -67.7433 -67.7428 -35.6969 -35.6966
   -35.6961 -35.6960 -35.6957 -35.6957 -35.6957 -35.6957 -35.6956 -35.6955
   -35.6955 -35.6955 -35.6955 -35.6954 -35.6952 -35.6950 -35.6949 -35.6946
   -35.6920 -35.6920 -35.6917 -35.6917 -35.6913 -35.6912 -35.6911 -35.6911
   -35.6908 -35.6908 -35.6908 -35.6908 -35.6908 -35.6908 -35.6907 -35.6907
   -35.6907 -35.6907 -35.6906 -35.6906 -35.6906 -35.6906 -35.6906 -35.6906
   -35.6906 -35.6905 -35.6905 -35.6905 -35.6903 -35.6903 -35.6902 -35.6901
   -35.6900 -35.6899 -35.6897 -35.6896 -35.1782 -35.1781 -35.1778 -35.1778
   -35.1777 -35.1777 -35.1775 -35.1775 -35.1774 -35.1774 -35.1774 -35.1774
   -35.1773 -35.1773 -35.1773 -35.1773 -35.1772 -35.1771 -35.1771 -35.1771
   -35.1771 -35.1771 -35.1770 -35.1770 -35.1770 -35.1770 -35.1770 -35.1770
   -35.1769 -35.1769 -35.1769 -35.1769 -35.1768 -35.1768 -35.1768 -35.1767
   -35.1762 -35.1761 -35.1760 -35.1760 -35.1759 -35.1759 -35.1758 -35.1757
   -35.1757 -35.1756 -35.1755 -35.1755 -35.1749 -35.1749 -35.1747 -35.1747
   -35.1744 -35.1742 -35.1712 -35.1710 -35.1709 -35.1708 -35.1707 -35.1707
   -35.1707 -35.1706 -35.1706 -35.1705 -35.1704 -35.1704 -35.1704 -35.1704
   -35.1703 -35.1703 -35.1703 -35.1702 -35.1702 -35.1702 -35.1701 -35.1699
   -35.1698 -35.1698 -35.1694 -35.1693 -35.1690 -35.1690 -35.1690 -35.1689
   -35.1688 -35.1687 -35.1687 -35.1686 -35.1686 -35.1686 -35.1685 -35.1685
   -35.1683 -35.1683 -35.1682 -35.1682 -35.1682 -35.1682 -35.1681 -35.1681
   -35.1681 -35.1681 -35.1681 -35.1680 -35.1680 -35.1680 -35.1680 -35.1676
   -14.2179 -14.2174 -14.2165 -14.2162 -14.2160 -14.2156 -14.2154 -14.2152
   -14.2149 -14.2147 -14.2146 -14.2145 -14.2143 -14.2141 -14.2139 -14.2137
   -14.2136 -14.2131 -14.2123 -14.2119 -14.2115 -14.2113 -14.2112 -14.2111
   -14.2108 -14.2105 -14.2105 -14.2104 -14.2103 -14.2103 -14.2101 -14.2100
   -14.2098 -14.2095 -14.2094 -14.2092 -14.2090 -14.2089 -14.2089 -14.2087
   -14.2087 -14.2085 -14.2083 -14.2083 -14.2082 -14.2079 -14.2079 -14.2078
   -14.2077 -14.2076 -14.2076 -14.2075 -14.2073 -14.2072 -14.2071 -14.2070
   -14.2068 -14.2066 -14.2062 -14.2060 -14.2059 -14.2055 -14.2052 -14.2049
   -14.2047 -14.2045 -14.2042 -14.2040 -14.2038 -14.2033 -14.2029 -14.2026
   -14.1900 -14.1883 -14.1880 -14.1878 -14.1875 -14.1873 -14.1873 -14.1871
   -14.1868 -14.1866 -14.1864 -14.1863 -14.1862 -14.1861 -14.1859 -14.1857
   -14.1857 -14.1855 -14.1854 -14.1852 -14.1850 -14.1849 -14.1847 -14.1843
   -14.1840 -14.1839 -14.1835 -14.1834 -14.1833 -14.1829 -14.1828 -14.1826
   -14.1824 -14.1822 -14.1820 -14.1806 -14.1746 -14.1745 -14.1734 -14.1732
   -14.1731 -14.1731 -14.1729 -14.1727 -14.1724 -14.1723 -14.1721 -14.1720
   -14.1719 -14.1718 -14.1717 -14.1716 -14.1711 -14.1710 -14.1708 -14.1706
   -14.1705 -14.1703 -14.1697 -14.1696 -14.1691 -14.1690 -14.1684 -14.1682
   -14.1676 -14.1673 -14.1672 -14.1667 -14.1664 -14.1661 -14.1660 -14.1656
   -14.1655 -14.1653 -14.1647 -14.1647 -14.1644 -14.1642 -14.1637 -14.1632
   -14.1630 -14.1629 -14.1625 -14.1622 -14.1617 -14.1616 -14.1610 -14.1609
   -14.1607 -14.1600 -14.1596 -14.1590 -14.1589 -14.1587 -14.1585 -14.1584
   -14.1583 -14.1581 -14.1580 -14.1578 -14.1575 -14.1574 -14.1573 -14.1571
   -14.1570 -14.1566 -14.1561 -14.1559  -3.5845  -3.4392  -3.4388  -3.4128
    -3.2795  -3.2787  -3.0797  -3.0788  -2.9681  -2.9623  -2.9605  -2.9025
    -2.8821  -2.8804  -2.8767  -2.8755  -2.8164  -2.8046  -2.8027  -2.7990
    -2.7424  -2.7225  -2.6935  -2.6912  -2.6586  -2.6579  -2.6458  -2.6416
    -2.6353  -2.6287  -2.5775  -2.5700  -2.5678  -2.5584  -2.5571  -2.5507
     3.0497   3.0836   3.1799   3.2113   3.2403   3.2624   3.3182   3.4617
     3.4815   3.5279   3.5291   3.5305   3.5621   3.6038   3.6215   3.6480
     3.6908   3.7025   3.7572   3.8556   3.8858   3.9195   3.9295   3.9768
     3.9782   3.9964   4.0592   4.0712   4.1212   4.1541   4.5998   4.6417
     4.6620   4.6690   4.6758   4.6986   4.7445   4.7514   4.8224   4.8342
     4.9510   4.9595   5.0223   5.1220   5.2359   5.2430   5.2492   5.3212
     5.3435   5.3547   5.3669   5.3792   5.3899   5.4140   5.4732   5.5105
     5.5545   5.7347   5.7369   5.7859   5.7877   5.8654   5.9108   5.9342
     5.9826   6.0235   6.0779   6.0958   6.1137   6.1432   6.1670   6.1877
     6.1918   6.1926   6.2498   6.2533   6.3217   6.3448   6.3620   6.3733
     6.4014   6.4412   6.4507   6.4548   6.7230   6.7727   6.7988   6.8135
     6.8190   6.8485   6.8589   6.8688   6.9574   6.9580   6.9986   7.0292
     7.0314   7.0987   7.1192   7.1212   7.1416   7.2378   7.2996   7.3306
     7.5506   7.5915   7.5969   7.7856   8.3091   8.5837   8.6149   8.6709
     8.8867   8.8944   8.9657   9.1036   9.2168   9.2207   9.3439   9.3581
     9.3586   9.4249   9.5226   9.5735   9.5742   9.5982   9.6569   9.6626
     9.7838   9.7879   9.8813   9.9335   9.9343   9.9545   9.9679  10.0068
    10.0478  10.0619  10.0714  10.2325  10.2413  10.2702  10.2723  10.2807
    10.2860  10.3862  10.4404  10.4482  10.4484  10.4802  10.4850  10.5269
    10.5788  10.6266  10.6605  10.6667  10.7293  10.7434  10.7521  10.7537
    10.7957  10.8335  10.8633  10.9351  11.0028  11.0047  11.0082  11.0915
    11.1777  11.2173  11.2557  11.2713  11.3007  11.3332  11.3478  11.3590
    11.3677  11.3805  11.4177  11.5080  11.5470  11.5624  11.5709  11.5724
    11.6069  11.6082  11.6200  11.6304  11.6449  11.7677  11.8264  11.8291
    11.8403  11.8632  11.8854  11.9039  11.9710  12.1097  12.1172  12.1411
    12.1526  12.1562  12.1578  12.2473  12.2675  12.3484  12.3525  12.3794
    12.3947  12.4218  12.4930  12.5222  12.5657  12.5962  12.5972  12.7025

     occupation numbers 
     1.0000   1.0000   1.0000   1.0000   1.0000   1.0000   1.0000   1.0000
     1.0000   1.0000   1.0000   1.0000   1.0000   1.0000   1.0000   1.0000
     1.0000   1.0000   1.0000   1.0000   1.0000   1.0000   1.0000   1.0000
     1.0000   1.0000   1.0000   1.0000   1.0000   1.0000   1.0000   1.0000
     1.0000   1.0000   1.0000   1.0000   1.0000   1.0000   1.0000   1.0000
     1.0000   1.0000   1.0000   1.0000   1.0000   1.0000   1.0000   1.0000
     1.0000   1.0000   1.0000   1.0000   1.0000   1.0000   1.0000   1.0000
     1.0000   1.0000   1.0000   1.0000   1.0000   1.0000   1.0000   1.0000
     1.0000   1.0000   1.0000   1.0000   1.0000   1.0000   1.0000   1.0000
     1.0000   1.0000   1.0000   1.0000   1.0000   1.0000   1.0000   1.0000
     1.0000   1.0000   1.0000   1.0000   1.0000   1.0000   1.0000   1.0000
     1.0000   1.0000   1.0000   1.0000   1.0000   1.0000   1.0000   1.0000
     1.0000   1.0000   1.0000   1.0000   1.0000   1.0000   1.0000   1.0000
     1.0000   1.0000   1.0000   1.0000   1.0000   1.0000   1.0000   1.0000
     1.0000   1.0000   1.0000   1.0000   1.0000   1.0000   1.0000   1.0000
     1.0000   1.0000   1.0000   1.0000   1.0000   1.0000   1.0000   1.0000
     1.0000   1.0000   1.0000   1.0000   1.0000   1.0000   1.0000   1.0000
     1.0000   1.0000   1.0000   1.0000   1.0000   1.0000   1.0000   1.0000
     1.0000   1.0000   1.0000   1.0000   1.0000   1.0000   1.0000   1.0000
     1.0000   1.0000   1.0000   1.0000   1.0000   1.0000   1.0000   1.0000
     1.0000   1.0000   1.0000   1.0000   1.0000   1.0000   1.0000   1.0000
     1.0000   1.0000   1.0000   1.0000   1.0000   1.0000   1.0000   1.0000
     1.0000   1.0000   1.0000   1.0000   1.0000   1.0000   1.0000   1.0000
     1.0000   1.0000   1.0000   1.0000   1.0000   1.0000   1.0000   1.0000
     1.0000   1.0000   1.0000   1.0000   1.0000   1.0000   1.0000   1.0000
     1.0000   1.0000   1.0000   1.0000   1.0000   1.0000   1.0000   1.0000
     1.0000   1.0000   1.0000   1.0000   1.0000   1.0000   1.0000   1.0000
     1.0000   1.0000   1.0000   1.0000   1.0000   1.0000   1.0000   1.0000
     1.0000   1.0000   1.0000   1.0000   1.0000   1.0000   1.0000   1.0000
     1.0000   1.0000   1.0000   1.0000   1.0000   1.0000   1.0000   1.0000
     1.0000   1.0000   1.0000   1.0000   1.0000   1.0000   1.0000   1.0000
     1.0000   1.0000   1.0000   1.0000   1.0000   1.0000   1.0000   1.0000
     1.0000   1.0000   1.0000   1.0000   1.0000   1.0000   1.0000   1.0000
     1.0000   1.0000   1.0000   1.0000   1.0000   1.0000   1.0000   1.0000
     1.0000   1.0000   1.0000   1.0000   1.0000   1.0000   1.0000   1.0000
     1.0000   1.0000   1.0000   1.0000   1.0000   1.0000   1.0000   1.0000
     1.0000   1.0000   1.0000   1.0000   1.0000   1.0000   1.0000   1.0000
     1.0000   1.0000   1.0000   1.0000   1.0000   1.0000   1.0000   1.0000
     1.0000   1.0000   1.0000   1.0000   1.0000   1.0000   1.0000   1.0000
     1.0000   1.0000   1.0000   1.0000   1.0000   1.0000   1.0000   1.0000
     1.0000   1.0000   1.0000   1.0000   1.0000   1.0000   1.0000   1.0000
     1.0000   1.0000   1.0000   1.0000   1.0000   1.0000   1.0000   1.0000
     1.0000   1.0000   1.0000   1.0000   1.0000   1.0000   1.0000   1.0000
     1.0000   1.0000   1.0000   1.0000   1.0000   1.0000   1.0000   1.0000
     1.0000   1.0000   1.0000   1.0000   1.0000   1.0000   1.0000   1.0000
     1.0000   1.0000   1.0000   1.0000   1.0000   1.0000   1.0000   1.0000
     1.0000   1.0000   1.0000   1.0000   1.0000   1.0000   1.0000   1.0000
     1.0000   1.0000   1.0000   1.0000   1.0000   1.0000   1.0000   1.0000
     1.0000   1.0000   1.0000   1.0000   1.0000   1.0000   1.0000   1.0000
     1.0000   1.0000   1.0000   1.0000   1.0000   1.0000   1.0000   1.0000
     1.0000   1.0000   1.0000   1.0000   1.0000   1.0000   1.0000   1.0000
     1.0000   1.0000   1.0000   1.0000   1.0000   1.0000   1.0000   1.0000
     1.0000   1.0000   1.0000   1.0000   1.0000   1.0000   1.0000   1.0000
     1.0000   1.0000   1.0000   1.0000   1.0000   1.0000   1.0000   1.0000
     1.0000   1.0000   1.0000   1.0000   1.0000   1.0000   1.0000   1.0000
     1.0000   1.0000   1.0000   1.0000   1.0000   1.0000   1.0000   1.0000
     1.0000   1.0000   1.0000   1.0000   1.0000   1.0000   1.0000   1.0000
     1.0000   1.0000   1.0000   1.0000   1.0000   1.0000   1.0000   1.0000
     1.0000   1.0000   1.0000   1.0000   1.0000   1.0000   1.0000   1.0000
     1.0000   1.0000   1.0000   1.0000   1.0000   1.0000   1.0000   1.0000
     1.0000   1.0000   1.0000   1.0000   1.0000   1.0000   1.0000   1.0000
     1.0000   1.0000   1.0000   1.0000   1.0000   1.0000   1.0000   1.0000
     1.0000   1.0000   1.0000   1.0000   1.0000   1.0000   1.0000   1.0000
     1.0000   1.0000   1.0000   1.0000   1.0000   1.0000   1.0000   1.0000
     1.0000   1.0000   1.0000   1.0000   1.0000   1.0000   1.0000   1.0000
     1.0000   1.0000   1.0000   1.0000   1.0000   1.0000   1.0000   1.0000
     1.0000   1.0000   1.0000   1.0000   1.0000   1.0000   1.0000   1.0000
     1.0000   1.0002   1.0003   1.0312  -0.0016  -0.0000  -0.0000  -0.0000
    -0.0000  -0.0000  -0.0000  -0.0000  -0.0000  -0.0000  -0.0000  -0.0000
    -0.0000  -0.0000  -0.0000  -0.0000  -0.0000  -0.0000  -0.0000  -0.0000
    -0.0000  -0.0000  -0.0000  -0.0000  -0.0000  -0.0000  -0.0000  -0.0000
    -0.0000  -0.0000  -0.0000  -0.0000  -0.0000  -0.0000  -0.0000  -0.0000
    -0.0000  -0.0000  -0.0000  -0.0000  -0.0000  -0.0000  -0.0000  -0.0000
    -0.0000  -0.0000  -0.0000  -0.0000  -0.0000  -0.0000  -0.0000  -0.0000
    -0.0000  -0.0000  -0.0000  -0.0000  -0.0000  -0.0000  -0.0000  -0.0000
    -0.0000  -0.0000  -0.0000  -0.0000  -0.0000  -0.0000  -0.0000  -0.0000
    -0.0000  -0.0000  -0.0000  -0.0000  -0.0000  -0.0000  -0.0000  -0.0000
    -0.0000  -0.0000  -0.0000  -0.0000  -0.0000  -0.0000  -0.0000  -0.0000
    -0.0000  -0.0000  -0.0000  -0.0000  -0.0000  -0.0000  -0.0000  -0.0000
    -0.0000  -0.0000  -0.0000  -0.0000  -0.0000  -0.0000  -0.0000  -0.0000
    -0.0000  -0.0000  -0.0000  -0.0000  -0.0000  -0.0000  -0.0000  -0.0000

          k =-0.5000-0.0000 0.2373 (554556 PWs)   bands (ev):

   -68.2859 -68.2855 -68.2851 -68.2849 -68.2847 -68.2846 -68.2846 -68.2846
   -68.2846 -68.2845 -68.2845 -68.2845 -68.2844 -68.2844 -68.2841 -68.2840
   -68.2838 -68.2835 -67.7455 -67.7452 -67.7450 -67.7447 -67.7445 -67.7444
   -67.7444 -67.7444 -67.7444 -67.7443 -67.7442 -67.7442 -67.7442 -67.7441
   -67.7441 -67.7441 -67.7440 -67.7440 -67.7439 -67.7438 -67.7438 -67.7437
   -67.7437 -67.7437 -67.7437 -67.7437 -67.7436 -67.7436 -67.7436 -67.7435
   -67.7434 -67.7434 -67.7434 -67.7433 -67.7433 -67.7428 -35.6969 -35.6966
   -35.6961 -35.6960 -35.6957 -35.6957 -35.6957 -35.6957 -35.6956 -35.6955
   -35.6955 -35.6955 -35.6955 -35.6954 -35.6952 -35.6950 -35.6949 -35.6946
   -35.6920 -35.6920 -35.6917 -35.6917 -35.6913 -35.6912 -35.6911 -35.6911
   -35.6908 -35.6908 -35.6908 -35.6908 -35.6908 -35.6908 -35.6907 -35.6907
   -35.6907 -35.6907 -35.6906 -35.6906 -35.6906 -35.6906 -35.6906 -35.6906
   -35.6906 -35.6905 -35.6905 -35.6905 -35.6903 -35.6903 -35.6902 -35.6901
   -35.6900 -35.6899 -35.6897 -35.6896 -35.1782 -35.1781 -35.1778 -35.1778
   -35.1777 -35.1777 -35.1775 -35.1775 -35.1774 -35.1774 -35.1774 -35.1774
   -35.1773 -35.1773 -35.1773 -35.1773 -35.1772 -35.1771 -35.1771 -35.1771
   -35.1771 -35.1771 -35.1770 -35.1770 -35.1770 -35.1770 -35.1770 -35.1770
   -35.1769 -35.1769 -35.1769 -35.1769 -35.1768 -35.1768 -35.1768 -35.1767
   -35.1762 -35.1761 -35.1760 -35.1760 -35.1759 -35.1759 -35.1758 -35.1757
   -35.1757 -35.1756 -35.1755 -35.1755 -35.1749 -35.1749 -35.1747 -35.1747
   -35.1744 -35.1742 -35.1712 -35.1710 -35.1709 -35.1708 -35.1707 -35.1707
   -35.1707 -35.1706 -35.1706 -35.1705 -35.1704 -35.1704 -35.1704 -35.1704
   -35.1703 -35.1703 -35.1703 -35.1702 -35.1702 -35.1702 -35.1701 -35.1699
   -35.1698 -35.1698 -35.1694 -35.1693 -35.1690 -35.1690 -35.1690 -35.1689
   -35.1688 -35.1687 -35.1687 -35.1686 -35.1686 -35.1686 -35.1685 -35.1685
   -35.1683 -35.1683 -35.1682 -35.1682 -35.1682 -35.1682 -35.1681 -35.1681
   -35.1681 -35.1681 -35.1681 -35.1680 -35.1680 -35.1680 -35.1680 -35.1676
   -14.2179 -14.2174 -14.2165 -14.2162 -14.2160 -14.2156 -14.2153 -14.2152
   -14.2150 -14.2147 -14.2146 -14.2145 -14.2144 -14.2141 -14.2139 -14.2138
   -14.2135 -14.2130 -14.2123 -14.2119 -14.2116 -14.2113 -14.2111 -14.2111
   -14.2108 -14.2105 -14.2105 -14.2104 -14.2104 -14.2102 -14.2102 -14.2100
   -14.2098 -14.2095 -14.2094 -14.2092 -14.2090 -14.2090 -14.2088 -14.2088
   -14.2086 -14.2086 -14.2083 -14.2082 -14.2081 -14.2080 -14.2079 -14.2078
   -14.2077 -14.2076 -14.2076 -14.2075 -14.2074 -14.2072 -14.2071 -14.2069
   -14.2067 -14.2066 -14.2063 -14.2061 -14.2058 -14.2055 -14.2052 -14.2049
   -14.2046 -14.2045 -14.2042 -14.2040 -14.2038 -14.2033 -14.2029 -14.2026
   -14.1900 -14.1883 -14.1880 -14.1878 -14.1875 -14.1873 -14.1872 -14.1871
   -14.1868 -14.1866 -14.1864 -14.1863 -14.1862 -14.1861 -14.1859 -14.1858
   -14.1856 -14.1855 -14.1853 -14.1852 -14.1851 -14.1849 -14.1847 -14.1843
   -14.1840 -14.1839 -14.1835 -14.1835 -14.1833 -14.1829 -14.1828 -14.1826
   -14.1823 -14.1822 -14.1820 -14.1806 -14.1746 -14.1745 -14.1734 -14.1733
   -14.1732 -14.1730 -14.1729 -14.1727 -14.1724 -14.1723 -14.1721 -14.1720
   -14.1719 -14.1718 -14.1717 -14.1716 -14.1711 -14.1710 -14.1708 -14.1706
   -14.1705 -14.1703 -14.1697 -14.1695 -14.1692 -14.1690 -14.1685 -14.1682
   -14.1676 -14.1673 -14.1672 -14.1667 -14.1665 -14.1662 -14.1660 -14.1656
   -14.1654 -14.1652 -14.1648 -14.1647 -14.1645 -14.1642 -14.1637 -14.1632
   -14.1630 -14.1628 -14.1626 -14.1622 -14.1618 -14.1616 -14.1610 -14.1609
   -14.1607 -14.1600 -14.1596 -14.1591 -14.1588 -14.1587 -14.1586 -14.1584
   -14.1582 -14.1581 -14.1580 -14.1578 -14.1575 -14.1574 -14.1572 -14.1571
   -14.1570 -14.1566 -14.1561 -14.1558  -3.5845  -3.4392  -3.4388  -3.4128
    -3.2795  -3.2787  -3.0797  -3.0788  -2.9681  -2.9623  -2.9605  -2.9025
    -2.8821  -2.8804  -2.8766  -2.8755  -2.8164  -2.8046  -2.8026  -2.7990
    -2.7424  -2.7225  -2.6935  -2.6913  -2.6586  -2.6579  -2.6458  -2.6416
    -2.6353  -2.6287  -2.5775  -2.5700  -2.5678  -2.5584  -2.5571  -2.5508
     3.0496   3.0837   3.1799   3.2115   3.2402   3.2623   3.3181   3.4618
     3.4815   3.5283   3.5293   3.5304   3.5617   3.6038   3.6215   3.6479
     3.6907   3.7024   3.7570   3.8556   3.8859   3.9195   3.9296   3.9768
     3.9780   3.9966   4.0589   4.0714   4.1211   4.1539   4.5998   4.6419
     4.6619   4.6693   4.6758   4.6989   4.7444   4.7516   4.8223   4.8340
     4.9508   4.9596   5.0220   5.1218   5.2362   5.2429   5.2490   5.3210
     5.3437   5.3547   5.3669   5.3794   5.3901   5.4138   5.4731   5.5108
     5.5546   5.7346   5.7372   5.7858   5.7876   5.8653   5.9110   5.9342
     5.9826   6.0233   6.0779   6.0956   6.1140   6.1429   6.1670   6.1878
     6.1918   6.1928   6.2495   6.2531   6.3219   6.3445   6.3622   6.3735
     6.4012   6.4415   6.4507   6.4547   6.7231   6.7726   6.7985   6.8133
     6.8192   6.8486   6.8587   6.8689   6.9576   6.9580   6.9985   7.0291
     7.0316   7.0989   7.1192   7.1214   7.1415   7.2377   7.2999   7.3303
     7.5506   7.5915   7.5968   7.7856   8.3091   8.5838   8.6148   8.6710
     8.8867   8.8944   8.9656   9.1037   9.2169   9.2207   9.3437   9.3581
     9.3587   9.4247   9.5226   9.5737   9.5743   9.5982   9.6571   9.6624
     9.7838   9.7878   9.8813   9.9335   9.9344   9.9545   9.9680  10.0069
    10.0478  10.0620  10.0715  10.2326  10.2411  10.2704  10.2721  10.2808
    10.2857  10.3863  10.4404  10.4481  10.4482  10.4801  10.4850  10.5268
    10.5789  10.6265  10.6608  10.6666  10.7292  10.7435  10.7520  10.7540
    10.7958  10.8335  10.8634  10.9348  11.0029  11.0048  11.0082  11.0916
    11.1778  11.2172  11.2556  11.2713  11.3009  11.3331  11.3478  11.3589
    11.3679  11.3804  11.4176  11.5081  11.5472  11.5623  11.5706  11.5725
    11.6068  11.6080  11.6200  11.6303  11.6449  11.7674  11.8266  11.8292
    11.8401  11.8633  11.8853  11.9042  11.9708  12.1095  12.1174  12.1411
    12.1526  12.1561  12.1580  12.2475  12.2675  12.3480  12.3523  12.3794
    12.3945  12.4218  12.4934  12.5223  12.5656  12.5961  12.5970  12.7029

     occupation numbers 
     1.0000   1.0000   1.0000   1.0000   1.0000   1.0000   1.0000   1.0000
     1.0000   1.0000   1.0000   1.0000   1.0000   1.0000   1.0000   1.0000
     1.0000   1.0000   1.0000   1.0000   1.0000   1.0000   1.0000   1.0000
     1.0000   1.0000   1.0000   1.0000   1.0000   1.0000   1.0000   1.0000
     1.0000   1.0000   1.0000   1.0000   1.0000   1.0000   1.0000   1.0000
     1.0000   1.0000   1.0000   1.0000   1.0000   1.0000   1.0000   1.0000
     1.0000   1.0000   1.0000   1.0000   1.0000   1.0000   1.0000   1.0000
     1.0000   1.0000   1.0000   1.0000   1.0000   1.0000   1.0000   1.0000
     1.0000   1.0000   1.0000   1.0000   1.0000   1.0000   1.0000   1.0000
     1.0000   1.0000   1.0000   1.0000   1.0000   1.0000   1.0000   1.0000
     1.0000   1.0000   1.0000   1.0000   1.0000   1.0000   1.0000   1.0000
     1.0000   1.0000   1.0000   1.0000   1.0000   1.0000   1.0000   1.0000
     1.0000   1.0000   1.0000   1.0000   1.0000   1.0000   1.0000   1.0000
     1.0000   1.0000   1.0000   1.0000   1.0000   1.0000   1.0000   1.0000
     1.0000   1.0000   1.0000   1.0000   1.0000   1.0000   1.0000   1.0000
     1.0000   1.0000   1.0000   1.0000   1.0000   1.0000   1.0000   1.0000
     1.0000   1.0000   1.0000   1.0000   1.0000   1.0000   1.0000   1.0000
     1.0000   1.0000   1.0000   1.0000   1.0000   1.0000   1.0000   1.0000
     1.0000   1.0000   1.0000   1.0000   1.0000   1.0000   1.0000   1.0000
     1.0000   1.0000   1.0000   1.0000   1.0000   1.0000   1.0000   1.0000
     1.0000   1.0000   1.0000   1.0000   1.0000   1.0000   1.0000   1.0000
     1.0000   1.0000   1.0000   1.0000   1.0000   1.0000   1.0000   1.0000
     1.0000   1.0000   1.0000   1.0000   1.0000   1.0000   1.0000   1.0000
     1.0000   1.0000   1.0000   1.0000   1.0000   1.0000   1.0000   1.0000
     1.0000   1.0000   1.0000   1.0000   1.0000   1.0000   1.0000   1.0000
     1.0000   1.0000   1.0000   1.0000   1.0000   1.0000   1.0000   1.0000
     1.0000   1.0000   1.0000   1.0000   1.0000   1.0000   1.0000   1.0000
     1.0000   1.0000   1.0000   1.0000   1.0000   1.0000   1.0000   1.0000
     1.0000   1.0000   1.0000   1.0000   1.0000   1.0000   1.0000   1.0000
     1.0000   1.0000   1.0000   1.0000   1.0000   1.0000   1.0000   1.0000
     1.0000   1.0000   1.0000   1.0000   1.0000   1.0000   1.0000   1.0000
     1.0000   1.0000   1.0000   1.0000   1.0000   1.0000   1.0000   1.0000
     1.0000   1.0000   1.0000   1.0000   1.0000   1.0000   1.0000   1.0000
     1.0000   1.0000   1.0000   1.0000   1.0000   1.0000   1.0000   1.0000
     1.0000   1.0000   1.0000   1.0000   1.0000   1.0000   1.0000   1.0000
     1.0000   1.0000   1.0000   1.0000   1.0000   1.0000   1.0000   1.0000
     1.0000   1.0000   1.0000   1.0000   1.0000   1.0000   1.0000   1.0000
     1.0000   1.0000   1.0000   1.0000   1.0000   1.0000   1.0000   1.0000
     1.0000   1.0000   1.0000   1.0000   1.0000   1.0000   1.0000   1.0000
     1.0000   1.0000   1.0000   1.0000   1.0000   1.0000   1.0000   1.0000
     1.0000   1.0000   1.0000   1.0000   1.0000   1.0000   1.0000   1.0000
     1.0000   1.0000   1.0000   1.0000   1.0000   1.0000   1.0000   1.0000
     1.0000   1.0000   1.0000   1.0000   1.0000   1.0000   1.0000   1.0000
     1.0000   1.0000   1.0000   1.0000   1.0000   1.0000   1.0000   1.0000
     1.0000   1.0000   1.0000   1.0000   1.0000   1.0000   1.0000   1.0000
     1.0000   1.0000   1.0000   1.0000   1.0000   1.0000   1.0000   1.0000
     1.0000   1.0000   1.0000   1.0000   1.0000   1.0000   1.0000   1.0000
     1.0000   1.0000   1.0000   1.0000   1.0000   1.0000   1.0000   1.0000
     1.0000   1.0000   1.0000   1.0000   1.0000   1.0000   1.0000   1.0000
     1.0000   1.0000   1.0000   1.0000   1.0000   1.0000   1.0000   1.0000
     1.0000   1.0000   1.0000   1.0000   1.0000   1.0000   1.0000   1.0000
     1.0000   1.0000   1.0000   1.0000   1.0000   1.0000   1.0000   1.0000
     1.0000   1.0000   1.0000   1.0000   1.0000   1.0000   1.0000   1.0000
     1.0000   1.0000   1.0000   1.0000   1.0000   1.0000   1.0000   1.0000
     1.0000   1.0000   1.0000   1.0000   1.0000   1.0000   1.0000   1.0000
     1.0000   1.0000   1.0000   1.0000   1.0000   1.0000   1.0000   1.0000
     1.0000   1.0000   1.0000   1.0000   1.0000   1.0000   1.0000   1.0000
     1.0000   1.0000   1.0000   1.0000   1.0000   1.0000   1.0000   1.0000
     1.0000   1.0000   1.0000   1.0000   1.0000   1.0000   1.0000   1.0000
     1.0000   1.0000   1.0000   1.0000   1.0000   1.0000   1.0000   1.0000
     1.0000   1.0000   1.0000   1.0000   1.0000   1.0000   1.0000   1.0000
     1.0000   1.0000   1.0000   1.0000   1.0000   1.0000   1.0000   1.0000
     1.0000   1.0000   1.0000   1.0000   1.0000   1.0000   1.0000   1.0000
     1.0000   1.0000   1.0000   1.0000   1.0000   1.0000   1.0000   1.0000
     1.0000   1.0000   1.0000   1.0000   1.0000   1.0000   1.0000   1.0000
     1.0000   1.0000   1.0000   1.0000   1.0000   1.0000   1.0000   1.0000
     1.0000   1.0000   1.0000   1.0000   1.0000   1.0000   1.0000   1.0000
     1.0000   1.0002   1.0003   1.0312  -0.0016  -0.0000  -0.0000  -0.0000
    -0.0000  -0.0000  -0.0000  -0.0000  -0.0000  -0.0000  -0.0000  -0.0000
    -0.0000  -0.0000  -0.0000  -0.0000  -0.0000  -0.0000  -0.0000  -0.0000
    -0.0000  -0.0000  -0.0000  -0.0000  -0.0000  -0.0000  -0.0000  -0.0000
    -0.0000  -0.0000  -0.0000  -0.0000  -0.0000  -0.0000  -0.0000  -0.0000
    -0.0000  -0.0000  -0.0000  -0.0000  -0.0000  -0.0000  -0.0000  -0.0000
    -0.0000  -0.0000  -0.0000  -0.0000  -0.0000  -0.0000  -0.0000  -0.0000
    -0.0000  -0.0000  -0.0000  -0.0000  -0.0000  -0.0000  -0.0000  -0.0000
    -0.0000  -0.0000  -0.0000  -0.0000  -0.0000  -0.0000  -0.0000  -0.0000
    -0.0000  -0.0000  -0.0000  -0.0000  -0.0000  -0.0000  -0.0000  -0.0000
    -0.0000  -0.0000  -0.0000  -0.0000  -0.0000  -0.0000  -0.0000  -0.0000
    -0.0000  -0.0000  -0.0000  -0.0000  -0.0000  -0.0000  -0.0000  -0.0000
    -0.0000  -0.0000  -0.0000  -0.0000  -0.0000  -0.0000  -0.0000  -0.0000
    -0.0000  -0.0000  -0.0000  -0.0000  -0.0000  -0.0000  -0.0000  -0.0000

          k =-0.2500 0.4330 0.4746 (554570 PWs)   bands (ev):

   -68.2859 -68.2855 -68.2851 -68.2849 -68.2847 -68.2846 -68.2846 -68.2846
   -68.2846 -68.2845 -68.2845 -68.2845 -68.2844 -68.2844 -68.2841 -68.2840
   -68.2838 -68.2835 -67.7455 -67.7452 -67.7450 -67.7447 -67.7445 -67.7444
   -67.7444 -67.7444 -67.7443 -67.7443 -67.7442 -67.7442 -67.7442 -67.7441
   -67.7441 -67.7441 -67.7440 -67.7440 -67.7439 -67.7438 -67.7438 -67.7437
   -67.7437 -67.7437 -67.7437 -67.7437 -67.7436 -67.7436 -67.7436 -67.7435
   -67.7434 -67.7434 -67.7434 -67.7433 -67.7433 -67.7428 -35.6969 -35.6966
   -35.6961 -35.6960 -35.6957 -35.6957 -35.6957 -35.6957 -35.6956 -35.6955
   -35.6955 -35.6955 -35.6955 -35.6954 -35.6952 -35.6950 -35.6949 -35.6946
   -35.6920 -35.6920 -35.6917 -35.6917 -35.6913 -35.6912 -35.6911 -35.6911
   -35.6908 -35.6908 -35.6908 -35.6908 -35.6908 -35.6908 -35.6907 -35.6907
   -35.6907 -35.6907 -35.6907 -35.6906 -35.6906 -35.6906 -35.6906 -35.6906
   -35.6906 -35.6905 -35.6905 -35.6905 -35.6903 -35.6903 -35.6902 -35.6901
   -35.6900 -35.6899 -35.6897 -35.6896 -35.1781 -35.1781 -35.1779 -35.1778
   -35.1777 -35.1777 -35.1775 -35.1775 -35.1774 -35.1774 -35.1774 -35.1774
   -35.1774 -35.1773 -35.1773 -35.1773 -35.1772 -35.1772 -35.1771 -35.1771
   -35.1771 -35.1771 -35.1770 -35.1770 -35.1770 -35.1770 -35.1770 -35.1769
   -35.1769 -35.1769 -35.1769 -35.1769 -35.1768 -35.1768 -35.1768 -35.1766
   -35.1762 -35.1762 -35.1760 -35.1760 -35.1759 -35.1758 -35.1758 -35.1758
   -35.1757 -35.1756 -35.1755 -35.1755 -35.1750 -35.1748 -35.1747 -35.1747
   -35.1744 -35.1742 -35.1712 -35.1710 -35.1709 -35.1708 -35.1708 -35.1707
   -35.1707 -35.1706 -35.1706 -35.1704 -35.1704 -35.1704 -35.1704 -35.1704
   -35.1703 -35.1703 -35.1703 -35.1702 -35.1702 -35.1702 -35.1701 -35.1699
   -35.1698 -35.1698 -35.1694 -35.1692 -35.1691 -35.1690 -35.1690 -35.1689
   -35.1688 -35.1687 -35.1686 -35.1686 -35.1686 -35.1685 -35.1685 -35.1685
   -35.1683 -35.1683 -35.1683 -35.1682 -35.1682 -35.1682 -35.1681 -35.1681
   -35.1681 -35.1681 -35.1681 -35.1680 -35.1680 -35.1680 -35.1680 -35.1676
   -14.2179 -14.2172 -14.2164 -14.2162 -14.2162 -14.2157 -14.2153 -14.2152
   -14.2150 -14.2147 -14.2146 -14.2146 -14.2143 -14.2141 -14.2140 -14.2138
   -14.2136 -14.2132 -14.2121 -14.2118 -14.2115 -14.2113 -14.2111 -14.2110
   -14.2109 -14.2105 -14.2104 -14.2103 -14.2102 -14.2101 -14.2100 -14.2099
   -14.2096 -14.2095 -14.2093 -14.2093 -14.2091 -14.2090 -14.2089 -14.2089
   -14.2087 -14.2086 -14.2084 -14.2084 -14.2082 -14.2081 -14.2080 -14.2080
   -14.2079 -14.2078 -14.2077 -14.2075 -14.2074 -14.2072 -14.2071 -14.2070
   -14.2068 -14.2066 -14.2061 -14.2059 -14.2057 -14.2054 -14.2050 -14.2048
   -14.2047 -14.2042 -14.2041 -14.2039 -14.2037 -14.2035 -14.2030 -14.2027
   -14.1900 -14.1883 -14.1880 -14.1877 -14.1875 -14.1874 -14.1873 -14.1870
   -14.1869 -14.1865 -14.1865 -14.1863 -14.1862 -14.1861 -14.1859 -14.1859
   -14.1855 -14.1855 -14.1854 -14.1853 -14.1850 -14.1849 -14.1848 -14.1844
   -14.1841 -14.1837 -14.1835 -14.1834 -14.1833 -14.1829 -14.1828 -14.1826
   -14.1823 -14.1821 -14.1821 -14.1806 -14.1746 -14.1745 -14.1736 -14.1734
   -14.1732 -14.1731 -14.1727 -14.1727 -14.1723 -14.1721 -14.1720 -14.1719
   -14.1718 -14.1718 -14.1714 -14.1714 -14.1713 -14.1712 -14.1709 -14.1708
   -14.1706 -14.1701 -14.1699 -14.1696 -14.1692 -14.1689 -14.1684 -14.1683
   -14.1679 -14.1672 -14.1671 -14.1665 -14.1664 -14.1660 -14.1660 -14.1657
   -14.1656 -14.1654 -14.1647 -14.1646 -14.1644 -14.1641 -14.1636 -14.1633
   -14.1630 -14.1629 -14.1625 -14.1623 -14.1619 -14.1616 -14.1609 -14.1609
   -14.1608 -14.1600 -14.1594 -14.1590 -14.1587 -14.1587 -14.1585 -14.1583
   -14.1581 -14.1581 -14.1579 -14.1577 -14.1576 -14.1575 -14.1574 -14.1571
   -14.1569 -14.1568 -14.1562 -14.1560  -3.5140  -3.5131  -3.3740  -3.3728
    -3.3724  -3.3721  -3.0314  -3.0306  -3.0295  -3.0288  -2.8667  -2.8658
    -2.8495  -2.8486  -2.8458  -2.8457  -2.8314  -2.8306  -2.7787  -2.7778
    -2.7550  -2.7541  -2.7534  -2.7527  -2.6171  -2.6160  -2.6144  -2.6139
    -2.6021  -2.6017  -2.5987  -2.5982  -2.5979  -2.5973  -2.5866  -2.5858
     3.1051   3.1057   3.1464   3.1469   3.2364   3.2371   3.5562   3.5568
     3.5635   3.5637   3.6181   3.6191   3.6467   3.6477   3.6868   3.6870
     3.6979   3.6986   3.7293   3.7300   3.7627   3.7633   3.7999   3.8004
     3.8364   3.8371   3.8919   3.8920   4.0423   4.0428   4.6528   4.6536
     4.7117   4.7124   4.8641   4.8644   4.9789   4.9793   5.0586   5.0593
     5.0627   5.0629   5.1204   5.1210   5.1353   5.1359   5.3425   5.3435
     5.3965   5.3971   5.3993   5.3996   5.4397   5.4401   5.4539   5.4546
     5.6032   5.6037   5.7195   5.7200   5.7232   5.7234   5.7315   5.7317
     5.7707   5.7708   5.8395   5.8405   6.0227   6.0236   6.1912   6.1920
     6.2116   6.2126   6.2998   6.3001   6.3314   6.3318   6.4173   6.4182
     6.4378   6.4379   6.5675   6.5680   6.7039   6.7041   6.7089   6.7095
     6.7305   6.7308   6.8914   6.8918   7.0890   7.0897   7.1194   7.1200
     7.1669   7.1671   7.1733   7.1743   7.3886   7.3892   7.4250   7.4251
     7.4323   7.4334   7.4904   7.4907   8.4527   8.4529   8.6180   8.6182
     9.0656   9.0661   9.1432   9.1435   9.1641   9.1645   9.3610   9.3617
     9.4332   9.4339   9.5049   9.5056   9.6472   9.6479   9.6514   9.6519
     9.6922   9.6926   9.8332   9.8333   9.9336   9.9343   9.9573   9.9577
    10.1291  10.1298  10.1505  10.1505  10.2227  10.2233  10.2511  10.2517
    10.3250  10.3251  10.4068  10.4072  10.4078  10.4085  10.5516  10.5520
    10.6082  10.6085  10.6803  10.6806  10.7178  10.7184  10.8780  10.8783
    10.9582  10.9586  11.0146  11.0152  11.0867  11.0871  11.1243  11.1249
    11.1343  11.1350  11.1709  11.1714  11.2518  11.2521  11.2714  11.2718
    11.3496  11.3498  11.4771  11.4773  11.5590  11.5593  11.6023  11.6027
    11.6128  11.6132  11.6442  11.6444  11.6571  11.6573  11.6775  11.6781
    11.7481  11.7483  11.7555  11.7564  11.8658  11.8665  11.9145  11.9147
    11.9307  11.9313  12.2533  12.2537  12.2657  12.2660  12.4154  12.4163
    12.4865  12.4870  12.5686  12.5690  12.5879  12.5881  12.6559  12.6561

     occupation numbers 
     1.0000   1.0000   1.0000   1.0000   1.0000   1.0000   1.0000   1.0000
     1.0000   1.0000   1.0000   1.0000   1.0000   1.0000   1.0000   1.0000
     1.0000   1.0000   1.0000   1.0000   1.0000   1.0000   1.0000   1.0000
     1.0000   1.0000   1.0000   1.0000   1.0000   1.0000   1.0000   1.0000
     1.0000   1.0000   1.0000   1.0000   1.0000   1.0000   1.0000   1.0000
     1.0000   1.0000   1.0000   1.0000   1.0000   1.0000   1.0000   1.0000
     1.0000   1.0000   1.0000   1.0000   1.0000   1.0000   1.0000   1.0000
     1.0000   1.0000   1.0000   1.0000   1.0000   1.0000   1.0000   1.0000
     1.0000   1.0000   1.0000   1.0000   1.0000   1.0000   1.0000   1.0000
     1.0000   1.0000   1.0000   1.0000   1.0000   1.0000   1.0000   1.0000
     1.0000   1.0000   1.0000   1.0000   1.0000   1.0000   1.0000   1.0000
     1.0000   1.0000   1.0000   1.0000   1.0000   1.0000   1.0000   1.0000
     1.0000   1.0000   1.0000   1.0000   1.0000   1.0000   1.0000   1.0000
     1.0000   1.0000   1.0000   1.0000   1.0000   1.0000   1.0000   1.0000
     1.0000   1.0000   1.0000   1.0000   1.0000   1.0000   1.0000   1.0000
     1.0000   1.0000   1.0000   1.0000   1.0000   1.0000   1.0000   1.0000
     1.0000   1.0000   1.0000   1.0000   1.0000   1.0000   1.0000   1.0000
     1.0000   1.0000   1.0000   1.0000   1.0000   1.0000   1.0000   1.0000
     1.0000   1.0000   1.0000   1.0000   1.0000   1.0000   1.0000   1.0000
     1.0000   1.0000   1.0000   1.0000   1.0000   1.0000   1.0000   1.0000
     1.0000   1.0000   1.0000   1.0000   1.0000   1.0000   1.0000   1.0000
     1.0000   1.0000   1.0000   1.0000   1.0000   1.0000   1.0000   1.0000
     1.0000   1.0000   1.0000   1.0000   1.0000   1.0000   1.0000   1.0000
     1.0000   1.0000   1.0000   1.0000   1.0000   1.0000   1.0000   1.0000
     1.0000   1.0000   1.0000   1.0000   1.0000   1.0000   1.0000   1.0000
     1.0000   1.0000   1.0000   1.0000   1.0000   1.0000   1.0000   1.0000
     1.0000   1.0000   1.0000   1.0000   1.0000   1.0000   1.0000   1.0000
     1.0000   1.0000   1.0000   1.0000   1.0000   1.0000   1.0000   1.0000
     1.0000   1.0000   1.0000   1.0000   1.0000   1.0000   1.0000   1.0000
     1.0000   1.0000   1.0000   1.0000   1.0000   1.0000   1.0000   1.0000
     1.0000   1.0000   1.0000   1.0000   1.0000   1.0000   1.0000   1.0000
     1.0000   1.0000   1.0000   1.0000   1.0000   1.0000   1.0000   1.0000
     1.0000   1.0000   1.0000   1.0000   1.0000   1.0000   1.0000   1.0000
     1.0000   1.0000   1.0000   1.0000   1.0000   1.0000   1.0000   1.0000
     1.0000   1.0000   1.0000   1.0000   1.0000   1.0000   1.0000   1.0000
     1.0000   1.0000   1.0000   1.0000   1.0000   1.0000   1.0000   1.0000
     1.0000   1.0000   1.0000   1.0000   1.0000   1.0000   1.0000   1.0000
     1.0000   1.0000   1.0000   1.0000   1.0000   1.0000   1.0000   1.0000
     1.0000   1.0000   1.0000   1.0000   1.0000   1.0000   1.0000   1.0000
     1.0000   1.0000   1.0000   1.0000   1.0000   1.0000   1.0000   1.0000
     1.0000   1.0000   1.0000   1.0000   1.0000   1.0000   1.0000   1.0000
     1.0000   1.0000   1.0000   1.0000   1.0000   1.0000   1.0000   1.0000
     1.0000   1.0000   1.0000   1.0000   1.0000   1.0000   1.0000   1.0000
     1.0000   1.0000   1.0000   1.0000   1.0000   1.0000   1.0000   1.0000
     1.0000   1.0000   1.0000   1.0000   1.0000   1.0000   1.0000   1.0000
     1.0000   1.0000   1.0000   1.0000   1.0000   1.0000   1.0000   1.0000
     1.0000   1.0000   1.0000   1.0000   1.0000   1.0000   1.0000   1.0000
     1.0000   1.0000   1.0000   1.0000   1.0000   1.0000   1.0000   1.0000
     1.0000   1.0000   1.0000   1.0000   1.0000   1.0000   1.0000   1.0000
     1.0000   1.0000   1.0000   1.0000   1.0000   1.0000   1.0000   1.0000
     1.0000   1.0000   1.0000   1.0000   1.0000   1.0000   1.0000   1.0000
     1.0000   1.0000   1.0000   1.0000   1.0000   1.0000   1.0000   1.0000
     1.0000   1.0000   1.0000   1.0000   1.0000   1.0000   1.0000   1.0000
     1.0000   1.0000   1.0000   1.0000   1.0000   1.0000   1.0000   1.0000
     1.0000   1.0000   1.0000   1.0000   1.0000   1.0000   1.0000   1.0000
     1.0000   1.0000   1.0000   1.0000   1.0000   1.0000   1.0000   1.0000
     1.0000   1.0000   1.0000   1.0000   1.0000   1.0000   1.0000   1.0000
     1.0000   1.0000   1.0000   1.0000   1.0000   1.0000   1.0000   1.0000
     1.0000   1.0000   1.0000   1.0000   1.0000   1.0000   1.0000   1.0000
     1.0000   1.0000   1.0000   1.0000   1.0000   1.0000   1.0000   1.0000
     1.0000   1.0000   1.0000   1.0000   1.0000   1.0000   1.0000   1.0000
     1.0000   1.0000   1.0000   1.0000   1.0000   1.0000   1.0000   1.0000
     1.0000   1.0000   1.0000   1.0000   1.0000   1.0000   1.0000   1.0000
     1.0000   1.0000   1.0000   1.0000   1.0000   1.0000   1.0000   1.0000
     1.0000   1.0000   1.0000   1.0000   1.0000   1.0000   1.0000   1.0000
     1.0000   1.0000   1.0000   1.0000   1.0000   1.0000   1.0000   1.0000
     1.0000   1.0000   1.0000   1.0000   1.0000   1.0000   1.0000   1.0000
     1.0000   1.0000   1.0000   1.0000  -0.0000  -0.0000  -0.0000  -0.0000
    -0.0000  -0.0000  -0.0000  -0.0000  -0.0000  -0.0000  -0.0000  -0.0000
    -0.0000  -0.0000  -0.0000  -0.0000  -0.0000  -0.0000  -0.0000  -0.0000
    -0.0000  -0.0000  -0.0000  -0.0000  -0.0000  -0.0000  -0.0000  -0.0000
    -0.0000  -0.0000  -0.0000  -0.0000  -0.0000  -0.0000  -0.0000  -0.0000
    -0.0000  -0.0000  -0.0000  -0.0000  -0.0000  -0.0000  -0.0000  -0.0000
    -0.0000  -0.0000  -0.0000  -0.0000  -0.0000  -0.0000  -0.0000  -0.0000
    -0.0000  -0.0000  -0.0000  -0.0000  -0.0000  -0.0000  -0.0000  -0.0000
    -0.0000  -0.0000  -0.0000  -0.0000  -0.0000  -0.0000  -0.0000  -0.0000
    -0.0000  -0.0000  -0.0000  -0.0000  -0.0000  -0.0000  -0.0000  -0.0000
    -0.0000  -0.0000  -0.0000  -0.0000  -0.0000  -0.0000  -0.0000  -0.0000
    -0.0000  -0.0000  -0.0000  -0.0000  -0.0000  -0.0000  -0.0000  -0.0000
    -0.0000  -0.0000  -0.0000  -0.0000  -0.0000  -0.0000  -0.0000  -0.0000
    -0.0000  -0.0000  -0.0000  -0.0000  -0.0000  -0.0000  -0.0000  -0.0000

          k = 0.5000 0.0000-0.4746 (554570 PWs)   bands (ev):

   -68.2859 -68.2855 -68.2851 -68.2849 -68.2847 -68.2846 -68.2846 -68.2846
   -68.2846 -68.2845 -68.2845 -68.2845 -68.2844 -68.2844 -68.2841 -68.2840
   -68.2838 -68.2835 -67.7455 -67.7452 -67.7450 -67.7447 -67.7445 -67.7444
   -67.7444 -67.7444 -67.7444 -67.7443 -67.7442 -67.7442 -67.7442 -67.7441
   -67.7441 -67.7441 -67.7440 -67.7440 -67.7439 -67.7438 -67.7438 -67.7437
   -67.7437 -67.7437 -67.7437 -67.7437 -67.7436 -67.7436 -67.7436 -67.7435
   -67.7434 -67.7434 -67.7434 -67.7433 -67.7433 -67.7428 -35.6969 -35.6966
   -35.6961 -35.6960 -35.6957 -35.6957 -35.6957 -35.6957 -35.6956 -35.6955
   -35.6955 -35.6955 -35.6955 -35.6954 -35.6952 -35.6950 -35.6949 -35.6946
   -35.6920 -35.6920 -35.6917 -35.6917 -35.6913 -35.6912 -35.6911 -35.6911
   -35.6908 -35.6908 -35.6908 -35.6908 -35.6908 -35.6908 -35.6907 -35.6907
   -35.6907 -35.6907 -35.6906 -35.6906 -35.6906 -35.6906 -35.6906 -35.6906
   -35.6906 -35.6905 -35.6905 -35.6905 -35.6903 -35.6903 -35.6902 -35.6901
   -35.6900 -35.6899 -35.6897 -35.6896 -35.1782 -35.1781 -35.1778 -35.1778
   -35.1777 -35.1777 -35.1775 -35.1775 -35.1774 -35.1774 -35.1774 -35.1774
   -35.1773 -35.1773 -35.1773 -35.1773 -35.1772 -35.1771 -35.1771 -35.1771
   -35.1771 -35.1771 -35.1770 -35.1770 -35.1770 -35.1770 -35.1770 -35.1770
   -35.1769 -35.1769 -35.1769 -35.1769 -35.1768 -35.1768 -35.1768 -35.1767
   -35.1762 -35.1761 -35.1760 -35.1760 -35.1759 -35.1759 -35.1758 -35.1757
   -35.1757 -35.1756 -35.1755 -35.1755 -35.1749 -35.1749 -35.1747 -35.1747
   -35.1744 -35.1742 -35.1712 -35.1710 -35.1709 -35.1708 -35.1707 -35.1707
   -35.1707 -35.1706 -35.1706 -35.1705 -35.1704 -35.1704 -35.1704 -35.1704
   -35.1703 -35.1703 -35.1703 -35.1702 -35.1702 -35.1702 -35.1701 -35.1699
   -35.1698 -35.1698 -35.1694 -35.1693 -35.1690 -35.1690 -35.1690 -35.1689
   -35.1688 -35.1687 -35.1687 -35.1686 -35.1686 -35.1686 -35.1685 -35.1685
   -35.1683 -35.1683 -35.1682 -35.1682 -35.1682 -35.1682 -35.1681 -35.1681
   -35.1681 -35.1681 -35.1681 -35.1680 -35.1680 -35.1680 -35.1680 -35.1676
   -14.2178 -14.2173 -14.2164 -14.2162 -14.2161 -14.2156 -14.2153 -14.2152
   -14.2151 -14.2147 -14.2146 -14.2145 -14.2144 -14.2141 -14.2139 -14.2137
   -14.2136 -14.2132 -14.2122 -14.2119 -14.2114 -14.2113 -14.2112 -14.2111
   -14.2108 -14.2105 -14.2104 -14.2103 -14.2103 -14.2102 -14.2100 -14.2100
   -14.2097 -14.2094 -14.2093 -14.2092 -14.2091 -14.2090 -14.2089 -14.2089
   -14.2087 -14.2085 -14.2085 -14.2084 -14.2082 -14.2081 -14.2080 -14.2080
   -14.2079 -14.2078 -14.2076 -14.2075 -14.2074 -14.2073 -14.2072 -14.2071
   -14.2069 -14.2066 -14.2061 -14.2058 -14.2057 -14.2055 -14.2050 -14.2048
   -14.2047 -14.2042 -14.2041 -14.2038 -14.2037 -14.2035 -14.2030 -14.2028
   -14.1900 -14.1882 -14.1880 -14.1879 -14.1874 -14.1874 -14.1872 -14.1870
   -14.1867 -14.1866 -14.1865 -14.1864 -14.1861 -14.1861 -14.1860 -14.1859
   -14.1856 -14.1856 -14.1854 -14.1852 -14.1850 -14.1850 -14.1848 -14.1843
   -14.1840 -14.1838 -14.1835 -14.1834 -14.1833 -14.1829 -14.1828 -14.1826
   -14.1823 -14.1821 -14.1821 -14.1806 -14.1746 -14.1745 -14.1734 -14.1733
   -14.1731 -14.1731 -14.1729 -14.1728 -14.1724 -14.1722 -14.1720 -14.1719
   -14.1718 -14.1717 -14.1716 -14.1714 -14.1714 -14.1713 -14.1709 -14.1707
   -14.1704 -14.1703 -14.1699 -14.1696 -14.1691 -14.1690 -14.1685 -14.1682
   -14.1676 -14.1673 -14.1672 -14.1665 -14.1665 -14.1662 -14.1660 -14.1657
   -14.1655 -14.1654 -14.1648 -14.1646 -14.1644 -14.1642 -14.1637 -14.1632
   -14.1631 -14.1629 -14.1625 -14.1622 -14.1618 -14.1616 -14.1610 -14.1609
   -14.1607 -14.1601 -14.1595 -14.1590 -14.1587 -14.1587 -14.1584 -14.1582
   -14.1582 -14.1581 -14.1579 -14.1578 -14.1576 -14.1575 -14.1574 -14.1570
   -14.1569 -14.1568 -14.1562 -14.1560  -3.5140  -3.5131  -3.3736  -3.3732
    -3.3725  -3.3720  -3.0310  -3.0309  -3.0294  -3.0289  -2.8667  -2.8658
    -2.8493  -2.8488  -2.8460  -2.8457  -2.8314  -2.8306  -2.7786  -2.7778
    -2.7547  -2.7543  -2.7533  -2.7528  -2.6168  -2.6163  -2.6143  -2.6140
    -2.6019  -2.6018  -2.5988  -2.5981  -2.5980  -2.5973  -2.5866  -2.5858
     3.1053   3.1056   3.1466   3.1468   3.2362   3.2371   3.5562   3.5568
     3.5633   3.5639   3.6183   3.6191   3.6469   3.6475   3.6866   3.6872
     3.6980   3.6983   3.7295   3.7300   3.7629   3.7633   3.8001   3.8004
     3.8362   3.8371   3.8918   3.8920   4.0423   4.0426   4.6530   4.6537
     4.7115   4.7124   4.8641   4.8643   4.9790   4.9793   5.0586   5.0590
     5.0625   5.0631   5.1205   5.1210   5.1354   5.1356   5.3429   5.3433
     5.3966   5.3971   5.3993   5.3996   5.4397   5.4400   5.4540   5.4543
     5.6033   5.6037   5.7193   5.7201   5.7231   5.7233   5.7315   5.7318
     5.7707   5.7710   5.8396   5.8405   6.0230   6.0236   6.1915   6.1920
     6.2119   6.2125   6.2999   6.3002   6.3314   6.3317   6.4174   6.4180
     6.4377   6.4381   6.5675   6.5678   6.7039   6.7041   6.7087   6.7094
     6.7306   6.7308   6.8915   6.8919   7.0892   7.0897   7.1196   7.1198
     7.1668   7.1672   7.1735   7.1740   7.3884   7.3892   7.4249   7.4253
     7.4325   7.4330   7.4905   7.4905   8.4527   8.4529   8.6179   8.6181
     9.0656   9.0661   9.1432   9.1435   9.1641   9.1646   9.3610   9.3616
     9.4333   9.4337   9.5050   9.5053   9.6473   9.6477   9.6516   9.6518
     9.6922   9.6927   9.8331   9.8334   9.9336   9.9343   9.9574   9.9577
    10.1293  10.1297  10.1504  10.1506  10.2228  10.2233  10.2511  10.2514
    10.3251  10.3253  10.4069  10.4073  10.4080  10.4084  10.5516  10.5520
    10.6081  10.6085  10.6802  10.6806  10.7181  10.7183  10.8780  10.8782
    10.9583  10.9587  11.0148  11.0149  11.0866  11.0869  11.1245  11.1248
    11.1344  11.1349  11.1708  11.1714  11.2517  11.2521  11.2715  11.2718
    11.3495  11.3498  11.4771  11.4775  11.5590  11.5592  11.6023  11.6027
    11.6130  11.6131  11.6442  11.6444  11.6571  11.6573  11.6775  11.6781
    11.7480  11.7484  11.7555  11.7563  11.8661  11.8666  11.9145  11.9149
    11.9308  11.9311  12.2534  12.2537  12.2657  12.2660  12.4158  12.4162
    12.4867  12.4869  12.5687  12.5690  12.5877  12.5881  12.6556  12.6560

     occupation numbers 
     1.0000   1.0000   1.0000   1.0000   1.0000   1.0000   1.0000   1.0000
     1.0000   1.0000   1.0000   1.0000   1.0000   1.0000   1.0000   1.0000
     1.0000   1.0000   1.0000   1.0000   1.0000   1.0000   1.0000   1.0000
     1.0000   1.0000   1.0000   1.0000   1.0000   1.0000   1.0000   1.0000
     1.0000   1.0000   1.0000   1.0000   1.0000   1.0000   1.0000   1.0000
     1.0000   1.0000   1.0000   1.0000   1.0000   1.0000   1.0000   1.0000
     1.0000   1.0000   1.0000   1.0000   1.0000   1.0000   1.0000   1.0000
     1.0000   1.0000   1.0000   1.0000   1.0000   1.0000   1.0000   1.0000
     1.0000   1.0000   1.0000   1.0000   1.0000   1.0000   1.0000   1.0000
     1.0000   1.0000   1.0000   1.0000   1.0000   1.0000   1.0000   1.0000
     1.0000   1.0000   1.0000   1.0000   1.0000   1.0000   1.0000   1.0000
     1.0000   1.0000   1.0000   1.0000   1.0000   1.0000   1.0000   1.0000
     1.0000   1.0000   1.0000   1.0000   1.0000   1.0000   1.0000   1.0000
     1.0000   1.0000   1.0000   1.0000   1.0000   1.0000   1.0000   1.0000
     1.0000   1.0000   1.0000   1.0000   1.0000   1.0000   1.0000   1.0000
     1.0000   1.0000   1.0000   1.0000   1.0000   1.0000   1.0000   1.0000
     1.0000   1.0000   1.0000   1.0000   1.0000   1.0000   1.0000   1.0000
     1.0000   1.0000   1.0000   1.0000   1.0000   1.0000   1.0000   1.0000
     1.0000   1.0000   1.0000   1.0000   1.0000   1.0000   1.0000   1.0000
     1.0000   1.0000   1.0000   1.0000   1.0000   1.0000   1.0000   1.0000
     1.0000   1.0000   1.0000   1.0000   1.0000   1.0000   1.0000   1.0000
     1.0000   1.0000   1.0000   1.0000   1.0000   1.0000   1.0000   1.0000
     1.0000   1.0000   1.0000   1.0000   1.0000   1.0000   1.0000   1.0000
     1.0000   1.0000   1.0000   1.0000   1.0000   1.0000   1.0000   1.0000
     1.0000   1.0000   1.0000   1.0000   1.0000   1.0000   1.0000   1.0000
     1.0000   1.0000   1.0000   1.0000   1.0000   1.0000   1.0000   1.0000
     1.0000   1.0000   1.0000   1.0000   1.0000   1.0000   1.0000   1.0000
     1.0000   1.0000   1.0000   1.0000   1.0000   1.0000   1.0000   1.0000
     1.0000   1.0000   1.0000   1.0000   1.0000   1.0000   1.0000   1.0000
     1.0000   1.0000   1.0000   1.0000   1.0000   1.0000   1.0000   1.0000
     1.0000   1.0000   1.0000   1.0000   1.0000   1.0000   1.0000   1.0000
     1.0000   1.0000   1.0000   1.0000   1.0000   1.0000   1.0000   1.0000
     1.0000   1.0000   1.0000   1.0000   1.0000   1.0000   1.0000   1.0000
     1.0000   1.0000   1.0000   1.0000   1.0000   1.0000   1.0000   1.0000
     1.0000   1.0000   1.0000   1.0000   1.0000   1.0000   1.0000   1.0000
     1.0000   1.0000   1.0000   1.0000   1.0000   1.0000   1.0000   1.0000
     1.0000   1.0000   1.0000   1.0000   1.0000   1.0000   1.0000   1.0000
     1.0000   1.0000   1.0000   1.0000   1.0000   1.0000   1.0000   1.0000
     1.0000   1.0000   1.0000   1.0000   1.0000   1.0000   1.0000   1.0000
     1.0000   1.0000   1.0000   1.0000   1.0000   1.0000   1.0000   1.0000
     1.0000   1.0000   1.0000   1.0000   1.0000   1.0000   1.0000   1.0000
     1.0000   1.0000   1.0000   1.0000   1.0000   1.0000   1.0000   1.0000
     1.0000   1.0000   1.0000   1.0000   1.0000   1.0000   1.0000   1.0000
     1.0000   1.0000   1.0000   1.0000   1.0000   1.0000   1.0000   1.0000
     1.0000   1.0000   1.0000   1.0000   1.0000   1.0000   1.0000   1.0000
     1.0000   1.0000   1.0000   1.0000   1.0000   1.0000   1.0000   1.0000
     1.0000   1.0000   1.0000   1.0000   1.0000   1.0000   1.0000   1.0000
     1.0000   1.0000   1.0000   1.0000   1.0000   1.0000   1.0000   1.0000
     1.0000   1.0000   1.0000   1.0000   1.0000   1.0000   1.0000   1.0000
     1.0000   1.0000   1.0000   1.0000   1.0000   1.0000   1.0000   1.0000
     1.0000   1.0000   1.0000   1.0000   1.0000   1.0000   1.0000   1.0000
     1.0000   1.0000   1.0000   1.0000   1.0000   1.0000   1.0000   1.0000
     1.0000   1.0000   1.0000   1.0000   1.0000   1.0000   1.0000   1.0000
     1.0000   1.0000   1.0000   1.0000   1.0000   1.0000   1.0000   1.0000
     1.0000   1.0000   1.0000   1.0000   1.0000   1.0000   1.0000   1.0000
     1.0000   1.0000   1.0000   1.0000   1.0000   1.0000   1.0000   1.0000
     1.0000   1.0000   1.0000   1.0000   1.0000   1.0000   1.0000   1.0000
     1.0000   1.0000   1.0000   1.0000   1.0000   1.0000   1.0000   1.0000
     1.0000   1.0000   1.0000   1.0000   1.0000   1.0000   1.0000   1.0000
     1.0000   1.0000   1.0000   1.0000   1.0000   1.0000   1.0000   1.0000
     1.0000   1.0000   1.0000   1.0000   1.0000   1.0000   1.0000   1.0000
     1.0000   1.0000   1.0000   1.0000   1.0000   1.0000   1.0000   1.0000
     1.0000   1.0000   1.0000   1.0000   1.0000   1.0000   1.0000   1.0000
     1.0000   1.0000   1.0000   1.0000   1.0000   1.0000   1.0000   1.0000
     1.0000   1.0000   1.0000   1.0000   1.0000   1.0000   1.0000   1.0000
     1.0000   1.0000   1.0000   1.0000   1.0000   1.0000   1.0000   1.0000
     1.0000   1.0000   1.0000   1.0000   1.0000   1.0000   1.0000   1.0000
     1.0000   1.0000   1.0000   1.0000  -0.0000  -0.0000  -0.0000  -0.0000
    -0.0000  -0.0000  -0.0000  -0.0000  -0.0000  -0.0000  -0.0000  -0.0000
    -0.0000  -0.0000  -0.0000  -0.0000  -0.0000  -0.0000  -0.0000  -0.0000
    -0.0000  -0.0000  -0.0000  -0.0000  -0.0000  -0.0000  -0.0000  -0.0000
    -0.0000  -0.0000  -0.0000  -0.0000  -0.0000  -0.0000  -0.0000  -0.0000
    -0.0000  -0.0000  -0.0000  -0.0000  -0.0000  -0.0000  -0.0000  -0.0000
    -0.0000  -0.0000  -0.0000  -0.0000  -0.0000  -0.0000  -0.0000  -0.0000
    -0.0000  -0.0000  -0.0000  -0.0000  -0.0000  -0.0000  -0.0000  -0.0000
    -0.0000  -0.0000  -0.0000  -0.0000  -0.0000  -0.0000  -0.0000  -0.0000
    -0.0000  -0.0000  -0.0000  -0.0000  -0.0000  -0.0000  -0.0000  -0.0000
    -0.0000  -0.0000  -0.0000  -0.0000  -0.0000  -0.0000  -0.0000  -0.0000
    -0.0000  -0.0000  -0.0000  -0.0000  -0.0000  -0.0000  -0.0000  -0.0000
    -0.0000  -0.0000  -0.0000  -0.0000  -0.0000  -0.0000  -0.0000  -0.0000
    -0.0000  -0.0000  -0.0000  -0.0000  -0.0000  -0.0000  -0.0000  -0.0000

     the Fermi energy is     7.9780 ev

!    total energy              =  -12302.28618627 Ry
     estimated scf accuracy    <          3.6E-11 Ry
     smearing contrib. (-TS)   =       0.00084473 Ry
     internal energy E=F+TS    =  -12302.28703100 Ry

     The total energy is F=E-TS. E is the sum of the following terms:
     one-electron contribution =   -7010.74360468 Ry
     hartree contribution      =    3660.88999951 Ry
     xc contribution           =   -2373.33503234 Ry
     ewald contribution        =   -6579.09839349 Ry

     convergence has been achieved in  16 iterations

     Forces acting on atoms (cartesian axes, Ry/au):

     atom    1 type  1   force =    -0.00111581    0.00000869   -0.00111997
     atom    2 type  1   force =     0.00005426    0.00003520   -0.00011683
     atom    3 type  1   force =     0.00003426    0.00000517   -0.00009818
     atom    4 type  1   force =    -0.00003511   -0.00001927   -0.00011956
     atom    5 type  1   force =     0.00000989    0.00001623   -0.00009552
     atom    6 type  1   force =     0.00001195    0.00000002   -0.00009697
     atom    7 type  1   force =    -0.00002514   -0.00006663   -0.00012886
     atom    8 type  1   force =     0.00001191    0.00000003   -0.00009699
     atom    9 type  1   force =     0.00000004    0.00002915   -0.00008617
     atom   10 type  1   force =     0.00000830   -0.00000005   -0.00005726
     atom   11 type  1   force =    -0.00000821   -0.00001074   -0.00008299
     atom   12 type  1   force =    -0.00000047   -0.00000038   -0.00009025
     atom   13 type  1   force =     0.00000835   -0.00000235   -0.00008385
     atom   14 type  1   force =    -0.00000509    0.00000120   -0.00008938
     atom   15 type  1   force =     0.00000099    0.00000000   -0.00008489
     atom   16 type  1   force =     0.00000445    0.00001479   -0.00008018
     atom   17 type  1   force =     0.00000105    0.00000002   -0.00008486
     atom   18 type  1   force =    -0.00000125   -0.00000251   -0.00009298
     atom   19 type  1   force =    -0.00005723    0.00002205   -0.00003535
     atom   20 type  1   force =     0.00000128    0.00000644    0.00007367
     atom   21 type  1   force =     0.00022759    0.00014184    0.00023474
     atom   22 type  1   force =    -0.00001856   -0.00016512    0.00010059
     atom   23 type  1   force =    -0.00000438    0.00000117    0.00007811
     atom   24 type  1   force =     0.00000101   -0.00000419    0.00008323
     atom   25 type  1   force =    -0.00000265   -0.00000227    0.00006831
     atom   26 type  1   force =     0.00000857   -0.00000421    0.00007901
     atom   27 type  1   force =    -0.00000632    0.00000312    0.00008065
     atom   28 type  1   force =     0.00001313   -0.00000465    0.00011000
     atom   29 type  1   force =     0.00000568    0.00000121    0.00009068
     atom   30 type  1   force =    -0.00001512   -0.00001171    0.00008323
     atom   31 type  1   force =     0.00000512    0.00001634    0.00009661
     atom   32 type  1   force =    -0.00000271    0.00000807    0.00008922
     atom   33 type  1   force =    -0.00000425   -0.00000712    0.00008772
     atom   34 type  1   force =     0.00000632    0.00000037    0.00008968
     atom   35 type  1   force =     0.00000845   -0.00000160    0.00009167
     atom   36 type  1   force =    -0.00001663   -0.00000088    0.00008844
     atom   37 type  1   force =     0.00000051    0.00004774    0.00003023
     atom   38 type  1   force =    -0.00000013    0.00000213   -0.00000389
     atom   39 type  1   force =     0.00000240   -0.00000060    0.00000284
     atom   40 type  1   force =     0.00002515   -0.00001420    0.00002318
     atom   41 type  1   force =    -0.00005738   -0.00003340    0.00003725
     atom   42 type  1   force =     0.00000849   -0.00000301    0.00000419
     atom   43 type  1   force =    -0.00000019   -0.00000509   -0.00000240
     atom   44 type  1   force =     0.00000351   -0.00000152   -0.00000050
     atom   45 type  1   force =    -0.00000546    0.00000798    0.00001079
     atom   46 type  1   force =    -0.00006433   -0.00004488    0.00004294
     atom   47 type  1   force =     0.00003869   -0.00000785    0.00005953
     atom   48 type  1   force =     0.00004608    0.00001226   -0.00000580
     atom   49 type  1   force =    -0.00002826   -0.00002073   -0.00000316
     atom   50 type  1   force =     0.00004962    0.00006589    0.00008928
     atom   51 type  1   force =     0.00000459    0.00000017    0.00001156
     atom   52 type  1   force =    -0.00000682   -0.00000665    0.00000646
     atom   53 type  1   force =     0.00002497   -0.00000422    0.00002699
     atom   54 type  1   force =    -0.00000656    0.00000638    0.00001670
     atom   55 type  2   force =     0.00007806    0.00000018    0.00042955
     atom   56 type  2   force =    -0.00000231   -0.00001230   -0.00000591
     atom   57 type  2   force =    -0.00001999    0.00000257   -0.00003302
     atom   58 type  2   force =     0.00000251    0.00001099   -0.00001689
     atom   59 type  2   force =     0.00000260    0.00000897   -0.00002198
     atom   60 type  2   force =    -0.00000250   -0.00000034   -0.00002740
     atom   61 type  2   force =     0.00001192    0.00001002   -0.00000338
     atom   62 type  2   force =    -0.00000395    0.00000005   -0.00002764
     atom   63 type  2   force =    -0.00000593   -0.00002016   -0.00003555
     atom   64 type  2   force =     0.00000609    0.00000032   -0.00004444
     atom   65 type  2   force =     0.00000080    0.00000106   -0.00004643
     atom   66 type  2   force =    -0.00000466    0.00001037   -0.00001911
     atom   67 type  2   force =    -0.00000256    0.00000247   -0.00004313
     atom   68 type  2   force =     0.00000957   -0.00000366   -0.00002215
     atom   69 type  2   force =    -0.00000192   -0.00000026   -0.00003211
     atom   70 type  2   force =     0.00000421    0.00000039   -0.00005688
     atom   71 type  2   force =    -0.00000547   -0.00000004   -0.00003183
     atom   72 type  2   force =     0.00001077   -0.00001055   -0.00000845
     atom   73 type  2   force =     0.00066823   -0.00038818    0.00032793
     atom   74 type  2   force =    -0.00002965   -0.00000597    0.00003428
     atom   75 type  2   force =     0.00014938    0.00008810   -0.00005799
     atom   76 type  2   force =    -0.00000367    0.00029291    0.00013190
     atom   77 type  2   force =    -0.00001035   -0.00001437    0.00003338
     atom   78 type  2   force =     0.00000179    0.00000711    0.00002832
     atom   79 type  2   force =    -0.00000050    0.00001662    0.00003858
     atom   80 type  2   force =    -0.00001156   -0.00001071    0.00002972
     atom   81 type  2   force =     0.00001433    0.00000681    0.00003081
     atom   82 type  2   force =     0.00000775   -0.00000971   -0.00000547
     atom   83 type  2   force =    -0.00000442   -0.00000042    0.00003199
     atom   84 type  2   force =     0.00000342    0.00000784    0.00002034
     atom   85 type  2   force =    -0.00000963    0.00000230    0.00000757
     atom   86 type  2   force =     0.00000590   -0.00000485    0.00003383
     atom   87 type  2   force =     0.00000168    0.00000691    0.00003337
     atom   88 type  2   force =    -0.00000565   -0.00000096    0.00003021
     atom   89 type  2   force =    -0.00000680    0.00000126    0.00003367
     atom   90 type  2   force =     0.00001400   -0.00000259    0.00003355
     The non-local contrib.  to forces
     atom    1 type  1   force =    -0.00256127    0.00001251    0.02846887
     atom    2 type  1   force =    -0.00031453   -0.00020470    0.03115364
     atom    3 type  1   force =    -0.00012395   -0.00006464    0.03104946
     atom    4 type  1   force =     0.00027399    0.00004851    0.03119065
     atom    5 type  1   force =    -0.00005363   -0.00007789    0.03101257
     atom    6 type  1   force =    -0.00008303    0.00000034    0.03102188
     atom    7 type  1   force =     0.00012984    0.00043859    0.03124292
     atom    8 type  1   force =    -0.00005071   -0.00000011    0.03101530
     atom    9 type  1   force =    -0.00000815   -0.00013881    0.03096067
     atom   10 type  1   force =    -0.00004232   -0.00000012    0.03080950
     atom   11 type  1   force =     0.00004434    0.00005260    0.03089709
     atom   12 type  1   force =    -0.00000726    0.00001562    0.03098465
     atom   13 type  1   force =    -0.00005224    0.00001868    0.03090767
     atom   14 type  1   force =     0.00003286   -0.00000806    0.03097405
     atom   15 type  1   force =    -0.00000275    0.00000015    0.03093985
     atom   16 type  1   force =    -0.00001683   -0.00007987    0.03086382
     atom   17 type  1   force =    -0.00001398   -0.00000000    0.03093791
     atom   18 type  1   force =     0.00001679    0.00000088    0.03101776
     atom   19 type  1   force =     0.00025219   -0.00020243   -0.03044201
     atom   20 type  1   force =    -0.00000896   -0.00004366   -0.03087478
     atom   21 type  1   force =     0.00006749    0.00009443   -0.03071892
     atom   22 type  1   force =    -0.00009725    0.00010551   -0.03057996
     atom   23 type  1   force =     0.00001760   -0.00000742   -0.03090611
     atom   24 type  1   force =     0.00000531    0.00001462   -0.03092783
     atom   25 type  1   force =     0.00002249    0.00001831   -0.03085047
     atom   26 type  1   force =    -0.00005286    0.00002550   -0.03089897
     atom   27 type  1   force =     0.00003055   -0.00000693   -0.03091692
     atom   28 type  1   force =    -0.00005107    0.00001161   -0.03109112
     atom   29 type  1   force =    -0.00002708    0.00000063   -0.03097507
     atom   30 type  1   force =     0.00008867    0.00006866   -0.03098735
     atom   31 type  1   force =    -0.00003061   -0.00008055   -0.03103925
     atom   32 type  1   force =     0.00002640   -0.00004557   -0.03096052
     atom   33 type  1   force =     0.00002244    0.00004817   -0.03095652
     atom   34 type  1   force =    -0.00003444   -0.00000405   -0.03097063
     atom   35 type  1   force =    -0.00003294    0.00000359   -0.03097956
     atom   36 type  1   force =     0.00010560   -0.00000219   -0.03095844
     atom   37 type  1   force =     0.00001856   -0.00027338   -0.00017001
     atom   38 type  1   force =    -0.00000792   -0.00000909    0.00001009
     atom   39 type  1   force =    -0.00000952    0.00000800   -0.00002088
     atom   40 type  1   force =    -0.00012115    0.00008062   -0.00006945
     atom   41 type  1   force =     0.00035168    0.00019229   -0.00027016
     atom   42 type  1   force =    -0.00006083    0.00000835   -0.00000858
     atom   43 type  1   force =     0.00001005    0.00004117    0.00005070
     atom   44 type  1   force =    -0.00002352    0.00000108   -0.00000547
     atom   45 type  1   force =     0.00002468   -0.00004912   -0.00006790
     atom   46 type  1   force =     0.00029473    0.00006043   -0.00009305
     atom   47 type  1   force =    -0.00041778    0.00019917   -0.00040412
     atom   48 type  1   force =    -0.00030760   -0.00013604    0.00016958
     atom   49 type  1   force =     0.00007822    0.00012466    0.00001216
     atom   50 type  1   force =    -0.00002547   -0.00018521   -0.00019684
     atom   51 type  1   force =    -0.00001184    0.00000861   -0.00006001
     atom   52 type  1   force =     0.00002140    0.00001935   -0.00004137
     atom   53 type  1   force =    -0.00007241   -0.00006404   -0.00011774
     atom   54 type  1   force =     0.00003636   -0.00002767   -0.00007883
     atom   55 type  2   force =     0.00037673    0.00000007    0.17358810
     atom   56 type  2   force =     0.00004110   -0.00002850    0.17466974
     atom   57 type  2   force =    -0.00007253    0.00000818    0.17456524
     atom   58 type  2   force =    -0.00001411    0.00005591    0.17462982
     atom   59 type  2   force =     0.00002493    0.00005253    0.17460500
     atom   60 type  2   force =    -0.00000307   -0.00000020    0.17459683
     atom   61 type  2   force =     0.00004958   -0.00001737    0.17468220
     atom   62 type  2   force =    -0.00001881    0.00000005    0.17460423
     atom   63 type  2   force =    -0.00002518   -0.00007060    0.17455288
     atom   64 type  2   force =     0.00009733    0.00000020    0.17441810
     atom   65 type  2   force =    -0.00003309   -0.00002023    0.17451710
     atom   66 type  2   force =    -0.00005002    0.00005252    0.17463805
     atom   67 type  2   force =     0.00000486    0.00000479    0.17454766
     atom   68 type  2   force =     0.00004093   -0.00000621    0.17460785
     atom   69 type  2   force =    -0.00000042   -0.00000016    0.17458102
     atom   70 type  2   force =     0.00001748    0.00005599    0.17448699
     atom   71 type  2   force =    -0.00001702   -0.00000007    0.17458258
     atom   72 type  2   force =     0.00003644   -0.00008641    0.17466820
     atom   73 type  2   force =    -0.00084144    0.00073740   -0.17469866
     atom   74 type  2   force =    -0.00016092   -0.00001273   -0.17459418
     atom   75 type  2   force =     0.00001986   -0.00023638   -0.17395461
     atom   76 type  2   force =     0.00043251   -0.00050088   -0.17432672
     atom   77 type  2   force =    -0.00005388   -0.00006857   -0.17459515
     atom   78 type  2   force =     0.00000717    0.00003307   -0.17459985
     atom   79 type  2   force =    -0.00002766    0.00007669   -0.17459900
     atom   80 type  2   force =    -0.00005039   -0.00006414   -0.17458978
     atom   81 type  2   force =     0.00006467    0.00003533   -0.17459754
     atom   82 type  2   force =     0.00010812   -0.00007756   -0.17473162
     atom   83 type  2   force =    -0.00001532    0.00000099   -0.17458667
     atom   84 type  2   force =    -0.00003239   -0.00000319   -0.17463948
     atom   85 type  2   force =    -0.00002656    0.00008094   -0.17468539
     atom   86 type  2   force =     0.00001536   -0.00001442   -0.17458019
     atom   87 type  2   force =     0.00000431    0.00002048   -0.17457646
     atom   88 type  2   force =    -0.00001872   -0.00000213   -0.17459158
     atom   89 type  2   force =    -0.00001714    0.00000106   -0.17458180
     atom   90 type  2   force =     0.00004011   -0.00000643   -0.17457838
     The ionic contribution  to forces
     atom    1 type  1   force =    -0.07187271    0.00031932   -0.71153214
     atom    2 type  1   force =     0.00964400   -0.00000021   -0.62639681
     atom    3 type  1   force =     0.00962696   -0.00000021   -0.62635783
     atom    4 type  1   force =    -0.00014720   -0.00566289   -0.62636751
     atom    5 type  1   force =    -0.00017423    0.00564869   -0.62638700
     atom    6 type  1   force =     0.00180419    0.00000376   -0.62363691
     atom    7 type  1   force =    -0.00017423   -0.00564911   -0.62638700
     atom    8 type  1   force =     0.00180419   -0.00000418   -0.62363691
     atom    9 type  1   force =    -0.00014720    0.00566247   -0.62636751
     atom   10 type  1   force =    -0.00124297   -0.00000021   -0.61721613
     atom   11 type  1   force =     0.00061023   -0.00000021   -0.61994817
     atom   12 type  1   force =     0.00060857   -0.00000021   -0.61995602
     atom   13 type  1   force =    -0.00022167   -0.00047854   -0.61995406
     atom   14 type  1   force =    -0.00022132    0.00048089   -0.61995014
     atom   15 type  1   force =     0.00044981    0.00000061   -0.62078303
     atom   16 type  1   force =    -0.00022132   -0.00048132   -0.61995014
     atom   17 type  1   force =     0.00044981   -0.00000103   -0.62078303
     atom   18 type  1   force =    -0.00022167    0.00047812   -0.61995406
     atom   19 type  1   force =    -0.00839266   -0.00155323    0.60812363
     atom   20 type  1   force =     0.00375217    0.00019348    0.62096520
     atom   21 type  1   force =     0.02194265    0.01900244    0.63684988
     atom   22 type  1   force =    -0.01102651   -0.01753018    0.62254417
     atom   23 type  1   force =     0.00152601    0.00154572    0.61908655
     atom   24 type  1   force =     0.00483131   -0.00344359    0.62222784
     atom   25 type  1   force =     0.00034514   -0.00196902    0.62080670
     atom   26 type  1   force =     0.00068343    0.00176975    0.62112841
     atom   27 type  1   force =    -0.00114220    0.00191453    0.62066200
     atom   28 type  1   force =     0.00104854   -0.00144223    0.62768096
     atom   29 type  1   force =     0.00128407   -0.00012044    0.62322061
     atom   30 type  1   force =    -0.00218354   -0.00042674    0.62459800
     atom   31 type  1   force =    -0.00144693    0.00186832    0.62613738
     atom   32 type  1   force =     0.00138970    0.00097990    0.62425619
     atom   33 type  1   force =    -0.00002147   -0.00016199    0.62291168
     atom   34 type  1   force =     0.00025255   -0.00059592    0.62331825
     atom   35 type  1   force =     0.00004487    0.00071508    0.62312047
     atom   36 type  1   force =    -0.00030479   -0.00081441    0.62358248
     atom   37 type  1   force =    -0.00219724    0.00340266    0.00464683
     atom   38 type  1   force =    -0.00007855   -0.00020077    0.00014179
     atom   39 type  1   force =     0.00205526    0.00142900    0.00216166
     atom   40 type  1   force =     0.00234482   -0.00261938    0.00742934
     atom   41 type  1   force =    -0.00355413   -0.00078041    0.00185521
     atom   42 type  1   force =     0.00168247   -0.00016842    0.00077376
     atom   43 type  1   force =     0.00035108   -0.00076786    0.00091449
     atom   44 type  1   force =    -0.00042306   -0.00123249    0.00115406
     atom   45 type  1   force =     0.00005771    0.00093887    0.00063662
     atom   46 type  1   force =    -0.00675971   -0.01160951    0.00474700
     atom   47 type  1   force =     0.00407589   -0.00287108    0.00122165
     atom   48 type  1   force =     0.00062066    0.00086845   -0.00205938
     atom   49 type  1   force =    -0.00845680    0.00099515   -0.00480154
     atom   50 type  1   force =     0.01164738    0.01064276    0.01435266
     atom   51 type  1   force =     0.00308074    0.00022515   -0.00048778
     atom   52 type  1   force =     0.00021700   -0.00165166   -0.00067401
     atom   53 type  1   force =    -0.00089024    0.00199137   -0.00042350
     atom   54 type  1   force =     0.00060403    0.00143164   -0.00030676
     atom   55 type  2   force =    -0.02204548   -0.00000023   -1.26642512
     atom   56 type  2   force =     0.00101435   -0.00000023   -1.32063592
     atom   57 type  2   force =     0.01028607   -0.00000023   -1.31183865
     atom   58 type  2   force =     0.00168437   -0.00764991   -1.31402708
     atom   59 type  2   force =    -0.00296621   -0.00038556   -1.31842568
     atom   60 type  2   force =     0.00180218    0.00000353   -1.31695284
     atom   61 type  2   force =    -0.00296621    0.00038510   -1.31842568
     atom   62 type  2   force =     0.00180218   -0.00000398   -1.31695284
     atom   63 type  2   force =     0.00168437    0.00764945   -1.31402708
     atom   64 type  2   force =    -0.00690976   -0.00000023   -1.29865092
     atom   65 type  2   force =     0.00571427   -0.00000023   -1.31145256
     atom   66 type  2   force =    -0.00024760   -0.00000023   -1.31712389
     atom   67 type  2   force =    -0.00203789    0.00068617   -1.31571200
     atom   68 type  2   force =     0.00093790    0.00447743   -1.31287634
     atom   69 type  2   force =     0.00124510    0.00000225   -1.31576928
     atom   70 type  2   force =     0.00093790   -0.00447788   -1.31287634
     atom   71 type  2   force =     0.00124510   -0.00000270   -1.31576928
     atom   72 type  2   force =    -0.00203789   -0.00068662   -1.31571200
     atom   73 type  2   force =     0.04979435   -0.04295412    1.32552750
     atom   74 type  2   force =     0.00640465   -0.00020296    1.31414065
     atom   75 type  2   force =     0.00028111    0.01418683    1.27860466
     atom   76 type  2   force =    -0.02444700    0.02847801    1.30194652
     atom   77 type  2   force =     0.00766118    0.00559972    1.31479328
     atom   78 type  2   force =     0.00405615   -0.00350000    1.31138695
     atom   79 type  2   force =     0.00106762   -0.00308496    1.31430156
     atom   80 type  2   force =     0.00072168    0.00327742    1.31397483
     atom   81 type  2   force =    -0.00202189   -0.00206840    1.31308460
     atom   82 type  2   force =    -0.00198076    0.00022101    1.32089150
     atom   83 type  2   force =     0.00156425    0.00010591    1.31854419
     atom   84 type  2   force =     0.00049354    0.00120469    1.32322417
     atom   85 type  2   force =    -0.00159550   -0.00142608    1.32205924
     atom   86 type  2   force =     0.00017407    0.00030677    1.31848088
     atom   87 type  2   force =     0.00137640   -0.00099722    1.31961513
     atom   88 type  2   force =     0.00008197   -0.00085625    1.31845814
     atom   89 type  2   force =     0.00026663    0.00074873    1.31863239
     atom   90 type  2   force =    -0.00035405    0.00069431    1.31904917
     The local contribution  to forces
     atom    1 type  1   force =     0.07331964   -0.00032455    0.68194403
     atom    2 type  1   force =    -0.00927641    0.00024016    0.59512707
     atom    3 type  1   force =    -0.00946910    0.00006983    0.59521095
     atom    4 type  1   force =    -0.00016240    0.00559590    0.59505776
     atom    5 type  1   force =     0.00023927   -0.00555499    0.59528006
     atom    6 type  1   force =    -0.00171025   -0.00000278    0.59251919
     atom    7 type  1   force =     0.00001807    0.00514449    0.59501581
     atom    8 type  1   force =    -0.00174211    0.00000456    0.59252518
     atom    9 type  1   force =     0.00015708   -0.00549544    0.59532199
     atom   10 type  1   force =     0.00129443   -0.00000102    0.58635166
     atom   11 type  1   force =    -0.00066430   -0.00006302    0.58897041
     atom   12 type  1   force =    -0.00060108   -0.00001616    0.58888283
     atom   13 type  1   force =     0.00028226    0.00045723    0.58896465
     atom   14 type  1   force =     0.00018431   -0.00047229    0.58888880
     atom   15 type  1   force =    -0.00044698    0.00000036    0.58976031
     atom   16 type  1   force =     0.00024090    0.00057712    0.58900877
     atom   17 type  1   force =    -0.00043471    0.00000131    0.58976241
     atom   18 type  1   force =     0.00020520   -0.00048147    0.58884532
     atom   19 type  1   force =     0.00808249    0.00177755   -0.57771947
     atom   20 type  1   force =    -0.00374293   -0.00014354   -0.59001850
     atom   21 type  1   force =    -0.02178072   -0.01895649   -0.60589839
     atom   22 type  1   force =     0.01110687    0.01725891   -0.59186579
     atom   23 type  1   force =    -0.00154882   -0.00153637   -0.58810400
     atom   24 type  1   force =    -0.00483640    0.00342580   -0.59121840
     atom   25 type  1   force =    -0.00037121    0.00194916   -0.58988995
     atom   26 type  1   force =    -0.00062044   -0.00180022   -0.59015215
     atom   27 type  1   force =     0.00110474   -0.00190376   -0.58966623
     atom   28 type  1   force =    -0.00098587    0.00142606   -0.59648076
     atom   29 type  1   force =    -0.00125151    0.00012098   -0.59215589
     atom   30 type  1   force =     0.00208142    0.00034516   -0.59352820
     atom   31 type  1   force =     0.00148387   -0.00177246   -0.59500213
     atom   32 type  1   force =    -0.00141978   -0.00092544   -0.59320811
     atom   33 type  1   force =    -0.00000540    0.00010698   -0.59186852
     atom   34 type  1   force =    -0.00021242    0.00060068   -0.59225903
     atom   35 type  1   force =    -0.00000173   -0.00072074   -0.59205058
     atom   36 type  1   force =     0.00018152    0.00081689   -0.59253724
     atom   37 type  1   force =     0.00217963   -0.00308164   -0.00444654
     atom   38 type  1   force =     0.00008486    0.00021228   -0.00015542
     atom   39 type  1   force =    -0.00204229   -0.00143809   -0.00213787
     atom   40 type  1   force =    -0.00219744    0.00252377   -0.00733696
     atom   41 type  1   force =     0.00314491    0.00055400   -0.00154738
     atom   42 type  1   force =    -0.00161401    0.00015735   -0.00076086
     atom   43 type  1   force =    -0.00036210    0.00072283   -0.00096723
     atom   44 type  1   force =     0.00045053    0.00122965   -0.00114852
     atom   45 type  1   force =    -0.00008748   -0.00088130   -0.00055735
     atom   46 type  1   force =     0.00640065    0.01150356   -0.00461080
     atom   47 type  1   force =    -0.00362067    0.00266457   -0.00075866
     atom   48 type  1   force =    -0.00026561   -0.00072093    0.00188438
     atom   49 type  1   force =     0.00835108   -0.00114134    0.00478684
     atom   50 type  1   force =    -0.01157194   -0.01039180   -0.01406648
     atom   51 type  1   force =    -0.00306547   -0.00023261    0.00055896
     atom   52 type  1   force =    -0.00024685    0.00162656    0.00072138
     atom   53 type  1   force =     0.00098872   -0.00193184    0.00056850
     atom   54 type  1   force =    -0.00064643   -0.00139740    0.00040226
     atom   55 type  2   force =     0.02177450   -0.00000201    1.09864788
     atom   56 type  2   force =    -0.00106085    0.00001395    1.15134129
     atom   57 type  2   force =    -0.01023779   -0.00000545    1.14261573
     atom   58 type  2   force =    -0.00166762    0.00760900    1.14475941
     atom   59 type  2   force =     0.00294635    0.00034283    1.14917632
     atom   60 type  2   force =    -0.00180382   -0.00000126    1.14770677
     atom   61 type  2   force =     0.00292916   -0.00035470    1.14912199
     atom   62 type  2   force =    -0.00178955    0.00000385    1.14769794
     atom   63 type  2   force =    -0.00166336   -0.00760428    1.14481352
     atom   64 type  2   force =     0.00682264   -0.00000191    1.12955925
     atom   65 type  2   force =    -0.00568293    0.00002224    1.14226175
     atom   66 type  2   force =     0.00029233   -0.00004050    1.14784668
     atom   67 type  2   force =     0.00203010   -0.00068791    1.14649570
     atom   68 type  2   force =    -0.00096493   -0.00447575    1.14362425
     atom   69 type  2   force =    -0.00124921   -0.00000013    1.14653128
     atom   70 type  2   force =    -0.00095347    0.00442442    1.14370310
     atom   71 type  2   force =    -0.00123401    0.00000268    1.14653132
     atom   72 type  2   force =     0.00201669    0.00075884    1.14641668
     atom   73 type  2   force =    -0.04824884    0.04181519   -1.15585522
     atom   74 type  2   force =    -0.00628220    0.00020884   -1.14488910
     atom   75 type  2   force =    -0.00013851   -0.01386757   -1.11007002
     atom   76 type  2   force =     0.02402826   -0.02767071   -1.13284638
     atom   77 type  2   force =    -0.00762057   -0.00554717   -1.14554152
     atom   78 type  2   force =    -0.00406345    0.00347758   -1.14213681
     atom   79 type  2   force =    -0.00104308    0.00302996   -1.14504089
     atom   80 type  2   force =    -0.00068205   -0.00322779   -1.14473186
     atom   81 type  2   force =     0.00197366    0.00204205   -1.14383368
     atom   82 type  2   force =     0.00188118   -0.00015609   -1.15154852
     atom   83 type  2   force =    -0.00155562   -0.00010756   -1.14930067
     atom   84 type  2   force =    -0.00045448   -0.00119445   -1.15394360
     atom   85 type  2   force =     0.00161263    0.00134711   -1.15274771
     atom   86 type  2   force =    -0.00018405   -0.00029751   -1.14924175
     atom   87 type  2   force =    -0.00137921    0.00098591   -1.15038081
     atom   88 type  2   force =    -0.00007165    0.00085855   -1.14921115
     atom   89 type  2   force =    -0.00025505   -0.00074900   -1.14939216
     atom   90 type  2   force =     0.00032987   -0.00068878   -1.14981223
     The core correction contribution to forces
     atom    1 type  1   force =     0.00000000    0.00000000    0.00000000
     atom    2 type  1   force =     0.00000000    0.00000000    0.00000000
     atom    3 type  1   force =     0.00000000    0.00000000    0.00000000
     atom    4 type  1   force =     0.00000000    0.00000000    0.00000000
     atom    5 type  1   force =     0.00000000    0.00000000    0.00000000
     atom    6 type  1   force =     0.00000000    0.00000000    0.00000000
     atom    7 type  1   force =     0.00000000    0.00000000    0.00000000
     atom    8 type  1   force =     0.00000000    0.00000000    0.00000000
     atom    9 type  1   force =     0.00000000    0.00000000    0.00000000
     atom   10 type  1   force =     0.00000000    0.00000000    0.00000000
     atom   11 type  1   force =     0.00000000    0.00000000    0.00000000
     atom   12 type  1   force =     0.00000000    0.00000000    0.00000000
     atom   13 type  1   force =     0.00000000    0.00000000    0.00000000
     atom   14 type  1   force =     0.00000000    0.00000000    0.00000000
     atom   15 type  1   force =     0.00000000    0.00000000    0.00000000
     atom   16 type  1   force =     0.00000000    0.00000000    0.00000000
     atom   17 type  1   force =     0.00000000    0.00000000    0.00000000
     atom   18 type  1   force =     0.00000000    0.00000000    0.00000000
     atom   19 type  1   force =     0.00000000    0.00000000    0.00000000
     atom   20 type  1   force =     0.00000000    0.00000000    0.00000000
     atom   21 type  1   force =     0.00000000    0.00000000    0.00000000
     atom   22 type  1   force =     0.00000000    0.00000000    0.00000000
     atom   23 type  1   force =     0.00000000    0.00000000    0.00000000
     atom   24 type  1   force =     0.00000000    0.00000000    0.00000000
     atom   25 type  1   force =     0.00000000    0.00000000    0.00000000
     atom   26 type  1   force =     0.00000000    0.00000000    0.00000000
     atom   27 type  1   force =     0.00000000    0.00000000    0.00000000
     atom   28 type  1   force =     0.00000000    0.00000000    0.00000000
     atom   29 type  1   force =     0.00000000    0.00000000    0.00000000
     atom   30 type  1   force =     0.00000000    0.00000000    0.00000000
     atom   31 type  1   force =     0.00000000    0.00000000    0.00000000
     atom   32 type  1   force =     0.00000000    0.00000000    0.00000000
     atom   33 type  1   force =     0.00000000    0.00000000    0.00000000
     atom   34 type  1   force =     0.00000000    0.00000000    0.00000000
     atom   35 type  1   force =     0.00000000    0.00000000    0.00000000
     atom   36 type  1   force =     0.00000000    0.00000000    0.00000000
     atom   37 type  1   force =     0.00000000    0.00000000    0.00000000
     atom   38 type  1   force =     0.00000000    0.00000000    0.00000000
     atom   39 type  1   force =     0.00000000    0.00000000    0.00000000
     atom   40 type  1   force =     0.00000000    0.00000000    0.00000000
     atom   41 type  1   force =     0.00000000    0.00000000    0.00000000
     atom   42 type  1   force =     0.00000000    0.00000000    0.00000000
     atom   43 type  1   force =     0.00000000    0.00000000    0.00000000
     atom   44 type  1   force =     0.00000000    0.00000000    0.00000000
     atom   45 type  1   force =     0.00000000    0.00000000    0.00000000
     atom   46 type  1   force =     0.00000000    0.00000000    0.00000000
     atom   47 type  1   force =     0.00000000    0.00000000    0.00000000
     atom   48 type  1   force =     0.00000000    0.00000000    0.00000000
     atom   49 type  1   force =     0.00000000    0.00000000    0.00000000
     atom   50 type  1   force =     0.00000000    0.00000000    0.00000000
     atom   51 type  1   force =     0.00000000    0.00000000    0.00000000
     atom   52 type  1   force =     0.00000000    0.00000000    0.00000000
     atom   53 type  1   force =     0.00000000    0.00000000    0.00000000
     atom   54 type  1   force =     0.00000000    0.00000000    0.00000000
     atom   55 type  2   force =    -0.00002471   -0.00000000   -0.00538555
     atom   56 type  2   force =    -0.00000035    0.00000242   -0.00538442
     atom   57 type  2   force =     0.00000435   -0.00000050   -0.00537851
     atom   58 type  2   force =    -0.00000014   -0.00000275   -0.00538198
     atom   59 type  2   force =    -0.00000080   -0.00000226   -0.00538091
     atom   60 type  2   force =     0.00000035    0.00000002   -0.00537994
     atom   61 type  2   force =    -0.00000274   -0.00000120   -0.00538495
     atom   62 type  2   force =     0.00000101   -0.00000000   -0.00537996
     atom   63 type  2   force =     0.00000131    0.00000428   -0.00537797
     atom   64 type  2   force =    -0.00000265   -0.00000002   -0.00537189
     atom   65 type  2   force =     0.00000053    0.00000020   -0.00537535
     atom   66 type  2   force =     0.00000144   -0.00000232   -0.00538152
     atom   67 type  2   force =     0.00000032   -0.00000051   -0.00537647
     atom   68 type  2   force =    -0.00000194    0.00000080   -0.00538042
     atom   69 type  2   force =     0.00000029    0.00000002   -0.00537865
     atom   70 type  2   force =    -0.00000090   -0.00000095   -0.00537338
     atom   71 type  2   force =     0.00000112    0.00000000   -0.00537874
     atom   72 type  2   force =    -0.00000224    0.00000277   -0.00538350
     atom   73 type  2   force =    -0.00003693    0.00001277    0.00535530
     atom   74 type  2   force =     0.00000732    0.00000117    0.00537860
     atom   75 type  2   force =    -0.00001059    0.00000242    0.00536426
     atom   76 type  2   force =    -0.00001480   -0.00001447    0.00536006
     atom   77 type  2   force =     0.00000264    0.00000349    0.00537878
     atom   78 type  2   force =    -0.00000025   -0.00000179    0.00537947
     atom   79 type  2   force =     0.00000053   -0.00000390    0.00537802
     atom   80 type  2   force =     0.00000263    0.00000274    0.00537921
     atom   81 type  2   force =    -0.00000336   -0.00000167    0.00537912
     atom   82 type  2   force =    -0.00000264    0.00000255    0.00538681
     atom   83 type  2   force =     0.00000099    0.00000010    0.00537916
     atom   84 type  2   force =    -0.00000008   -0.00000112    0.00538186
     atom   85 type  2   force =     0.00000181   -0.00000147    0.00538433
     atom   86 type  2   force =    -0.00000107    0.00000099    0.00537879
     atom   87 type  2   force =    -0.00000037   -0.00000137    0.00537873
     atom   88 type  2   force =     0.00000113    0.00000009    0.00537942
     atom   89 type  2   force =     0.00000133   -0.00000019    0.00537889
     atom   90 type  2   force =    -0.00000277    0.00000041    0.00537877
     The Hubbard contrib.    to forces
     atom    1 type  1   force =     0.00000000    0.00000000    0.00000000
     atom    2 type  1   force =     0.00000000    0.00000000    0.00000000
     atom    3 type  1   force =     0.00000000    0.00000000    0.00000000
     atom    4 type  1   force =     0.00000000    0.00000000    0.00000000
     atom    5 type  1   force =     0.00000000    0.00000000    0.00000000
     atom    6 type  1   force =     0.00000000    0.00000000    0.00000000
     atom    7 type  1   force =     0.00000000    0.00000000    0.00000000
     atom    8 type  1   force =     0.00000000    0.00000000    0.00000000
     atom    9 type  1   force =     0.00000000    0.00000000    0.00000000
     atom   10 type  1   force =     0.00000000    0.00000000    0.00000000
     atom   11 type  1   force =     0.00000000    0.00000000    0.00000000
     atom   12 type  1   force =     0.00000000    0.00000000    0.00000000
     atom   13 type  1   force =     0.00000000    0.00000000    0.00000000
     atom   14 type  1   force =     0.00000000    0.00000000    0.00000000
     atom   15 type  1   force =     0.00000000    0.00000000    0.00000000
     atom   16 type  1   force =     0.00000000    0.00000000    0.00000000
     atom   17 type  1   force =     0.00000000    0.00000000    0.00000000
     atom   18 type  1   force =     0.00000000    0.00000000    0.00000000
     atom   19 type  1   force =     0.00000000    0.00000000    0.00000000
     atom   20 type  1   force =     0.00000000    0.00000000    0.00000000
     atom   21 type  1   force =     0.00000000    0.00000000    0.00000000
     atom   22 type  1   force =     0.00000000    0.00000000    0.00000000
     atom   23 type  1   force =     0.00000000    0.00000000    0.00000000
     atom   24 type  1   force =     0.00000000    0.00000000    0.00000000
     atom   25 type  1   force =     0.00000000    0.00000000    0.00000000
     atom   26 type  1   force =     0.00000000    0.00000000    0.00000000
     atom   27 type  1   force =     0.00000000    0.00000000    0.00000000
     atom   28 type  1   force =     0.00000000    0.00000000    0.00000000
     atom   29 type  1   force =     0.00000000    0.00000000    0.00000000
     atom   30 type  1   force =     0.00000000    0.00000000    0.00000000
     atom   31 type  1   force =     0.00000000    0.00000000    0.00000000
     atom   32 type  1   force =     0.00000000    0.00000000    0.00000000
     atom   33 type  1   force =     0.00000000    0.00000000    0.00000000
     atom   34 type  1   force =     0.00000000    0.00000000    0.00000000
     atom   35 type  1   force =     0.00000000    0.00000000    0.00000000
     atom   36 type  1   force =     0.00000000    0.00000000    0.00000000
     atom   37 type  1   force =     0.00000000    0.00000000    0.00000000
     atom   38 type  1   force =     0.00000000    0.00000000    0.00000000
     atom   39 type  1   force =     0.00000000    0.00000000    0.00000000
     atom   40 type  1   force =     0.00000000    0.00000000    0.00000000
     atom   41 type  1   force =     0.00000000    0.00000000    0.00000000
     atom   42 type  1   force =     0.00000000    0.00000000    0.00000000
     atom   43 type  1   force =     0.00000000    0.00000000    0.00000000
     atom   44 type  1   force =     0.00000000    0.00000000    0.00000000
     atom   45 type  1   force =     0.00000000    0.00000000    0.00000000
     atom   46 type  1   force =     0.00000000    0.00000000    0.00000000
     atom   47 type  1   force =     0.00000000    0.00000000    0.00000000
     atom   48 type  1   force =     0.00000000    0.00000000    0.00000000
     atom   49 type  1   force =     0.00000000    0.00000000    0.00000000
     atom   50 type  1   force =     0.00000000    0.00000000    0.00000000
     atom   51 type  1   force =     0.00000000    0.00000000    0.00000000
     atom   52 type  1   force =     0.00000000    0.00000000    0.00000000
     atom   53 type  1   force =     0.00000000    0.00000000    0.00000000
     atom   54 type  1   force =     0.00000000    0.00000000    0.00000000
     atom   55 type  2   force =     0.00000000    0.00000000    0.00000000
     atom   56 type  2   force =     0.00000000    0.00000000    0.00000000
     atom   57 type  2   force =     0.00000000    0.00000000    0.00000000
     atom   58 type  2   force =     0.00000000    0.00000000    0.00000000
     atom   59 type  2   force =     0.00000000    0.00000000    0.00000000
     atom   60 type  2   force =     0.00000000    0.00000000    0.00000000
     atom   61 type  2   force =     0.00000000    0.00000000    0.00000000
     atom   62 type  2   force =     0.00000000    0.00000000    0.00000000
     atom   63 type  2   force =     0.00000000    0.00000000    0.00000000
     atom   64 type  2   force =     0.00000000    0.00000000    0.00000000
     atom   65 type  2   force =     0.00000000    0.00000000    0.00000000
     atom   66 type  2   force =     0.00000000    0.00000000    0.00000000
     atom   67 type  2   force =     0.00000000    0.00000000    0.00000000
     atom   68 type  2   force =     0.00000000    0.00000000    0.00000000
     atom   69 type  2   force =     0.00000000    0.00000000    0.00000000
     atom   70 type  2   force =     0.00000000    0.00000000    0.00000000
     atom   71 type  2   force =     0.00000000    0.00000000    0.00000000
     atom   72 type  2   force =     0.00000000    0.00000000    0.00000000
     atom   73 type  2   force =     0.00000000    0.00000000    0.00000000
     atom   74 type  2   force =     0.00000000    0.00000000    0.00000000
     atom   75 type  2   force =     0.00000000    0.00000000    0.00000000
     atom   76 type  2   force =     0.00000000    0.00000000    0.00000000
     atom   77 type  2   force =     0.00000000    0.00000000    0.00000000
     atom   78 type  2   force =     0.00000000    0.00000000    0.00000000
     atom   79 type  2   force =     0.00000000    0.00000000    0.00000000
     atom   80 type  2   force =     0.00000000    0.00000000    0.00000000
     atom   81 type  2   force =     0.00000000    0.00000000    0.00000000
     atom   82 type  2   force =     0.00000000    0.00000000    0.00000000
     atom   83 type  2   force =     0.00000000    0.00000000    0.00000000
     atom   84 type  2   force =     0.00000000    0.00000000    0.00000000
     atom   85 type  2   force =     0.00000000    0.00000000    0.00000000
     atom   86 type  2   force =     0.00000000    0.00000000    0.00000000
     atom   87 type  2   force =     0.00000000    0.00000000    0.00000000
     atom   88 type  2   force =     0.00000000    0.00000000    0.00000000
     atom   89 type  2   force =     0.00000000    0.00000000    0.00000000
     atom   90 type  2   force =     0.00000000    0.00000000    0.00000000
     The SCF correction term to forces
     atom    1 type  1   force =    -0.00000146    0.00000141   -0.00000070
     atom    2 type  1   force =     0.00000120   -0.00000005   -0.00000071
     atom    3 type  1   force =     0.00000035    0.00000019   -0.00000073
     atom    4 type  1   force =     0.00000051   -0.00000079   -0.00000043
     atom    5 type  1   force =    -0.00000152    0.00000043   -0.00000112
     atom    6 type  1   force =     0.00000104   -0.00000130   -0.00000110
     atom    7 type  1   force =     0.00000119   -0.00000060   -0.00000057
     atom    8 type  1   force =     0.00000054   -0.00000025   -0.00000053
     atom    9 type  1   force =    -0.00000169    0.00000094   -0.00000130
     atom   10 type  1   force =    -0.00000083    0.00000131   -0.00000227
     atom   11 type  1   force =     0.00000153   -0.00000011   -0.00000229
     atom   12 type  1   force =    -0.00000070    0.00000037   -0.00000168
     atom   13 type  1   force =     0.00000001    0.00000029   -0.00000208
     atom   14 type  1   force =    -0.00000093    0.00000065   -0.00000206
     atom   15 type  1   force =     0.00000090   -0.00000112   -0.00000199
     atom   16 type  1   force =     0.00000170   -0.00000115   -0.00000261
     atom   17 type  1   force =    -0.00000007   -0.00000026   -0.00000211
     atom   18 type  1   force =    -0.00000157   -0.00000004   -0.00000197
     atom   19 type  1   force =     0.00000076    0.00000016    0.00000252
     atom   20 type  1   force =     0.00000101    0.00000016    0.00000179
     atom   21 type  1   force =    -0.00000184    0.00000146    0.00000221
     atom   22 type  1   force =    -0.00000166    0.00000063    0.00000219
     atom   23 type  1   force =     0.00000083   -0.00000076    0.00000170
     atom   24 type  1   force =     0.00000079   -0.00000101    0.00000165
     atom   25 type  1   force =     0.00000093   -0.00000072    0.00000205
     atom   26 type  1   force =    -0.00000156    0.00000075    0.00000175
     atom   27 type  1   force =     0.00000059   -0.00000072    0.00000183
     atom   28 type  1   force =     0.00000153   -0.00000009    0.00000095
     atom   29 type  1   force =     0.00000021    0.00000005    0.00000106
     atom   30 type  1   force =    -0.00000167    0.00000120    0.00000081
     atom   31 type  1   force =    -0.00000120    0.00000103    0.00000064
     atom   32 type  1   force =     0.00000098   -0.00000082    0.00000169
     atom   33 type  1   force =     0.00000019   -0.00000028    0.00000110
     atom   34 type  1   force =     0.00000063   -0.00000034    0.00000111
     atom   35 type  1   force =    -0.00000174    0.00000047    0.00000136
     atom   36 type  1   force =     0.00000104   -0.00000118    0.00000167
     atom   37 type  1   force =    -0.00000044    0.00000009   -0.00000002
     atom   38 type  1   force =     0.00000148   -0.00000029   -0.00000032
     atom   39 type  1   force =    -0.00000104    0.00000049   -0.00000004
     atom   40 type  1   force =    -0.00000108    0.00000078    0.00000028
     atom   41 type  1   force =     0.00000017    0.00000071   -0.00000038
     atom   42 type  1   force =     0.00000087   -0.00000030   -0.00000011
     atom   43 type  1   force =     0.00000079   -0.00000123   -0.00000034
     atom   44 type  1   force =    -0.00000043    0.00000025   -0.00000055
     atom   45 type  1   force =    -0.00000036   -0.00000047   -0.00000056
     atom   46 type  1   force =     0.00000000    0.00000064   -0.00000019
     atom   47 type  1   force =     0.00000126   -0.00000051    0.00000069
     atom   48 type  1   force =    -0.00000136    0.00000078   -0.00000035
     atom   49 type  1   force =    -0.00000076    0.00000080   -0.00000059
     atom   50 type  1   force =    -0.00000033    0.00000013   -0.00000004
     atom   51 type  1   force =     0.00000117   -0.00000098    0.00000042
     atom   52 type  1   force =     0.00000164   -0.00000090    0.00000049
     atom   53 type  1   force =    -0.00000110    0.00000029   -0.00000024
     atom   54 type  1   force =    -0.00000053   -0.00000019    0.00000007
     atom   55 type  2   force =    -0.00000298    0.00000235    0.00000426
     atom   56 type  2   force =     0.00000343    0.00000006    0.00000343
     atom   57 type  2   force =    -0.00000009    0.00000058    0.00000320
     atom   58 type  2   force =     0.00000002   -0.00000126    0.00000296
     atom   59 type  2   force =    -0.00000168    0.00000143    0.00000332
     atom   60 type  2   force =     0.00000187   -0.00000242    0.00000180
     atom   61 type  2   force =     0.00000212   -0.00000181    0.00000310
     atom   62 type  2   force =     0.00000122    0.00000013    0.00000301
     atom   63 type  2   force =    -0.00000306    0.00000099    0.00000313
     atom   64 type  2   force =    -0.00000146    0.00000228    0.00000104
     atom   65 type  2   force =     0.00000203   -0.00000092    0.00000267
     atom   66 type  2   force =    -0.00000080    0.00000090    0.00000160
     atom   67 type  2   force =     0.00000005   -0.00000008    0.00000200
     atom   68 type  2   force =    -0.00000238    0.00000008    0.00000254
     atom   69 type  2   force =     0.00000232   -0.00000224    0.00000354
     atom   70 type  2   force =     0.00000321   -0.00000119    0.00000278
     atom   71 type  2   force =    -0.00000066    0.00000005    0.00000233
     atom   72 type  2   force =    -0.00000223    0.00000087    0.00000219
     atom   73 type  2   force =     0.00000109    0.00000059   -0.00000096
     atom   74 type  2   force =     0.00000151   -0.00000028   -0.00000165
     atom   75 type  2   force =    -0.00000248    0.00000280   -0.00000225
     atom   76 type  2   force =    -0.00000263    0.00000096   -0.00000155
     atom   77 type  2   force =     0.00000027   -0.00000185   -0.00000198
     atom   78 type  2   force =     0.00000217   -0.00000176   -0.00000141
     atom   79 type  2   force =     0.00000209   -0.00000118   -0.00000108
     atom   80 type  2   force =    -0.00000342    0.00000107   -0.00000265
     atom   81 type  2   force =     0.00000126   -0.00000049   -0.00000166
     atom   82 type  2   force =     0.00000185    0.00000039   -0.00000362
     atom   83 type  2   force =     0.00000128    0.00000014   -0.00000399
     atom   84 type  2   force =    -0.00000317    0.00000190   -0.00000259
     atom   85 type  2   force =    -0.00000201    0.00000180   -0.00000287
     atom   86 type  2   force =     0.00000159   -0.00000067   -0.00000387
     atom   87 type  2   force =     0.00000055   -0.00000088   -0.00000319
     atom   88 type  2   force =     0.00000163   -0.00000122   -0.00000459
     atom   89 type  2   force =    -0.00000257    0.00000066   -0.00000362
     atom   90 type  2   force =     0.00000085   -0.00000211   -0.00000376

     Total force =     0.002015     Total SCF correction =     0.000026


     Computing stress (Cartesian axis) and pressure

          total   stress  (Ry/bohr**3)                   (kbar)     P=       -0.09
  -0.00000096  -0.00000014   0.00000008           -0.14       -0.02        0.01
  -0.00000014  -0.00000097  -0.00000000           -0.02       -0.14       -0.00
   0.00000008  -0.00000000   0.00000010            0.01       -0.00        0.02

     kinetic stress (kbar)  38987.10      0.00     -0.01
                                0.00  38987.10      0.00
                               -0.01      0.00  39002.79

     local   stress (kbar)  -5645.53      3.60     -1.59
                                3.60  -5645.53      0.00
                               -1.59      0.00  -6588.65

     nonloc. stress (kbar) -19072.54     -0.00      0.00
                               -0.00 -19072.54     -0.00
                                0.00     -0.00 -19085.07

     hartree stress (kbar)  10903.10     -1.43      0.60
                               -1.43  10903.11     -0.00
                                0.60     -0.00  11380.82

     exc-cor stress (kbar)   3414.54      0.00      0.00
                                0.00   3414.54      0.00
                                0.00      0.00   3414.54

     corecor stress (kbar)  -8552.07     -0.00     -0.00
                               -0.00  -8552.07      0.00
                               -0.00      0.00  -8552.46

     ewald   stress (kbar) -20034.74     -2.19      1.00
                               -2.19 -20034.74     -0.00
                                1.00     -0.00 -19571.95

     hubbard stress (kbar)      0.00      0.00      0.00
                                0.00      0.00      0.00
                                0.00      0.00      0.00

     DFT-D   stress (kbar)      0.00      0.00      0.00
                                0.00      0.00      0.00
                                0.00      0.00      0.00

     XDM     stress (kbar)      0.00      0.00      0.00
                                0.00      0.00      0.00
                                0.00      0.00      0.00

     dft-nl  stress (kbar)      0.00      0.00      0.00
                                0.00      0.00      0.00
                                0.00      0.00      0.00

     TS-vdW  stress (kbar)      0.00      0.00      0.00
                                0.00      0.00      0.00
                                0.00      0.00      0.00

     MDB     stress (kbar)      0.00      0.00      0.00
                                0.00      0.00      0.00
                                0.00      0.00      0.00

     3D-RISM stress (kbar)      0.00      0.00      0.00
                                0.00      0.00      0.00
                                0.00      0.00      0.00

     Message from routine punch:
     Nothing written, as per user request (disk_io='none')
 
     init_run     :    124.59s CPU    129.47s WALL (       1 calls)
     electrons    :   6543.06s CPU   6630.93s WALL (       1 calls)
     forces       :     44.12s CPU     44.78s WALL (       1 calls)
     stress       :    148.11s CPU    150.44s WALL (       1 calls)

     Called by init_run:
     wfcinit      :    121.39s CPU    126.13s WALL (       1 calls)
     wfcinit:atom :      0.58s CPU      0.86s WALL (      12 calls)
     wfcinit:wfcr :    118.91s CPU    122.99s WALL (      12 calls)
     potinit      :      0.18s CPU      0.19s WALL (       1 calls)
     hinit0       :      0.43s CPU      0.49s WALL (       1 calls)

     Called by electrons:
     c_bands      :   5954.41s CPU   6035.13s WALL (      17 calls)
     sum_band     :    583.15s CPU    590.09s WALL (      17 calls)
     v_of_rho     :      1.31s CPU      1.34s WALL (      17 calls)
     v_h          :      0.80s CPU      0.82s WALL (      17 calls)
     v_xc         :      0.54s CPU      0.55s WALL (      19 calls)
     mix_rho      :      1.48s CPU      1.59s WALL (      17 calls)

     Called by c_bands:
     init_us_2    :     49.05s CPU     49.61s WALL (     444 calls)
     cegterg      :   5082.25s CPU   5158.02s WALL (     204 calls)

     Called by sum_band:
     sum_band:wei :      0.14s CPU      0.14s WALL (      17 calls)
     sum_band:loo :    576.02s CPU    582.88s WALL (      17 calls)
     sum_band:buf :     10.57s CPU     10.84s WALL (     204 calls)
     sum_band:ini :     22.55s CPU     22.74s WALL (     204 calls)

     Called by *egterg:
     cdiaghg      :    371.90s CPU    380.24s WALL (    1033 calls)
     cegterg:over :    466.78s CPU    471.68s WALL (     841 calls)
     cegterg:upda :    436.16s CPU    445.13s WALL (     841 calls)
     cegterg:last :    648.82s CPU    653.97s WALL (     396 calls)
     cdiaghg:chol :     21.44s CPU     25.31s WALL (    1033 calls)
     cdiaghg:inve :      2.37s CPU      3.31s WALL (    1033 calls)
     cdiaghg:para :     40.73s CPU     41.61s WALL (    2066 calls)
     h_psi        :   3070.82s CPU   3114.59s WALL (    1057 calls)
     g_psi        :      8.96s CPU      9.05s WALL (     841 calls)

     Called by h_psi:
     h_psi:calbec :    393.49s CPU    399.49s WALL (    1057 calls)
     vloc_psi     :   2286.12s CPU   2310.21s WALL (    1057 calls)
                                        0.00s GPU  (    1057 calls)
     add_vuspsi   :    373.14s CPU    376.59s WALL (    1057 calls)

     General routines
     calbec       :    557.41s CPU    565.42s WALL (    1261 calls)
     fft          :      3.30s CPU      3.41s WALL (      59 calls)
     ffts         :      0.90s CPU      0.91s WALL (      17 calls)
     fftw         :   2382.82s CPU   2407.35s WALL (  725434 calls)
 
     Parallel routines
 
     PWSCF        :      1h54m CPU      1h56m WALL

 
   This run was terminated on:  20:59:19  23Aug2026            

=------------------------------------------------------------------------------=
   JOB DONE.
=------------------------------------------------------------------------------=
