
     Program PWSCF v.7.5 starts on 23Aug2026 at 17: 3:18 
        Git branch: develop
        Last git commit: 3c11e307ebcb4724b3e63ad706b3e9727dda56b0
        Last git commit date: Wed Jul 2 15:08:17 2025 +0000
        Last git commit subject: Merge branch 'a-few-qe-75-chores' into 'develop'

     This program is part of the open-source Quantum ESPRESSO suite
     for quantum simulation of materials; please cite
         "P. Giannozzi et al., J. Phys.:Condens. Matter 21 395502 (2009);
         "P. Giannozzi et al., J. Phys.:Condens. Matter 29 465901 (2017);
         "P. Giannozzi et al., J. Chem. Phys. 152 154105 (2020);
          URL http://www.quantum-espresso.org", 
     in publications or presentations arising from this work. More details at
     http://www.quantum-espresso.org/quote

     Parallel version (MPI), running on   240 processors

     MPI processes distributed on     5 nodes
     724798 MiB available memory on the printing compute node when the environment starts
 
     Waiting for input...
     Reading input from standard input
Warning: card &CELL ignored
Warning: card &FCP ignored
Warning: card &RISM ignored

     Current dimensions of program PWSCF are:
     Max number of different atomic species (ntypx) = 10
     Max number of k-points (npk) =  40000
     Max angular momentum in pseudopotentials (lmaxx) =  4
 
     K-points division:     npool     =       3
     R & G space division:  proc/nbgrp/npool/nimage =      80
     Subspace diagonalization in iterative solution of the eigenvalue problem:
     one sub-group per band group will be used
     custom distributed-memory algorithm (size of sub-group:  6*  6 procs)

 
     Parallelization info
     --------------------
     sticks:   dense  smooth     PW     G-vecs:    dense   smooth      PW
     Min         375     375     96                55452    55452    7232
     Max         377     377     97                55456    55456    7239
     Sum       30067   30067   7741              4436351  4436351  578813
 
     Using Slab Decomposition
 


     bravais-lattice index     =            0
     lattice parameter (alat)  =      26.1026  a.u.
     unit-cell volume          =   16227.2901 (a.u.)^3
     number of atoms/cell      =           90
     number of atomic types    =            2
     number of electrons       =      1080.00
     number of Kohn-Sham states=          648
     kinetic-energy cutoff     =     160.0000  Ry
     charge density cutoff     =     640.0000  Ry
     scf convergence threshold =      1.0E-10
     mixing beta               =       0.3000
     number of iterations used =            8  plain     mixing
     Exchange-correlation= SLA  PW   NOGX NOGC
                           (   1   4   0   0   0   0   0)

     celldm(1)=  26.102601  celldm(2)=   0.000000  celldm(3)=   0.000000
     celldm(4)=   0.000000  celldm(5)=   0.000000  celldm(6)=   0.000000

     crystal axes: (cart. coord. in units of alat)
               a(1) = (   1.000000   0.000000   0.000000 )  
               a(2) = (  -0.500000   0.866025   0.000000 )  
               a(3) = (   0.000000   0.000000   1.053571 )  

     reciprocal axes: (cart. coord. in units 2 pi/alat)
               b(1) = (  1.000000  0.577350 -0.000000 )  
               b(2) = (  0.000000  1.154701  0.000000 )  
               b(3) = (  0.000000 -0.000000  0.949153 )  


     PseudoPot. # 1 for Mg read from file:
     /home/IITB/multiscale-mechanics/amit.k.singh/PP/LDA_ONCV/Mg.UPF
     MD5 check sum: b625b74613aebb94f78e131e92efc946
     Pseudo is Norm-conserving, Zval = 10.0
     Generated using ONCVPSP code by D. R. Hamann
     Using radial grid of 1510 points,  4 beta functions with: 
                l(1) =   0
                l(2) =   0
                l(3) =   1
                l(4) =   1

     PseudoPot. # 2 for Bi read from file:
     /home/IITB/multiscale-mechanics/amit.k.singh/PP/LDA_ONCV/Bi.UPF
     MD5 check sum: 56dda99c34bc3f5cc94f668e0bde5a74
     Pseudo is Norm-conserving + core correction, Zval = 15.0
     Generated using ONCVPSP code by D. R. Hamann
     Using radial grid of 1454 points,  6 beta functions with: 
                l(1) =   0
                l(2) =   0
                l(3) =   1
                l(4) =   1
                l(5) =   2
                l(6) =   2

     atomic species   valence    mass     pseudopotential
     Mg               10.00    24.30500     Mg( 1.00)
     Bi               15.00   208.98040     Bi( 1.00)

     No symmetry found


                                    s                        frac. trans.

      isym =  1     identity                                     

 cryst.   s( 1) = (     1          0          0      )
                  (     0          1          0      )
                  (     0          0          1      )

 cart.    s( 1) = (  1.0000000  0.0000000  0.0000000 )
                  (  0.0000000  1.0000000  0.0000000 )
                  (  0.0000000  0.0000000  1.0000000 )


   Cartesian axes

     site n.     atom                  positions (alat units)
         1        Mg     tau(   1) = (  -0.0000000   0.1924501   0.3310424  )
         2        Mg     tau(   2) = (   0.3333333   0.1924501   0.3310424  )
         3        Mg     tau(   3) = (   0.6666667   0.1924501   0.3310424  )
         4        Mg     tau(   4) = (  -0.1666667   0.4811252   0.3310424  )
         5        Mg     tau(   5) = (   0.1666667   0.4811252   0.3310424  )
         6        Mg     tau(   6) = (   0.5000000   0.4811252   0.3310424  )
         7        Mg     tau(   7) = (  -0.3333333   0.7698004   0.3310424  )
         8        Mg     tau(   8) = (  -0.0000000   0.7698004   0.3310424  )
         9        Mg     tau(   9) = (   0.3333333   0.7698004   0.3310424  )
        10        Mg     tau(  10) = (  -0.0000000   0.1924501   0.8578281  )
        11        Mg     tau(  11) = (   0.3333333   0.1924501   0.8578281  )
        12        Mg     tau(  12) = (   0.6666667   0.1924501   0.8578281  )
        13        Mg     tau(  13) = (  -0.1666667   0.4811252   0.8578281  )
        14        Mg     tau(  14) = (   0.1666667   0.4811252   0.8578281  )
        15        Mg     tau(  15) = (   0.5000000   0.4811252   0.8578281  )
        16        Mg     tau(  16) = (  -0.3333333   0.7698004   0.8578281  )
        17        Mg     tau(  17) = (  -0.0000000   0.7698004   0.8578281  )
        18        Mg     tau(  18) = (   0.3333333   0.7698004   0.8578281  )
        19        Mg     tau(  19) = (   0.1666667   0.0962250   0.1957433  )
        20        Mg     tau(  20) = (   0.5000000   0.0962250   0.1957433  )
        21        Mg     tau(  21) = (   0.8333333   0.0962250   0.1957433  )
        22        Mg     tau(  22) = (   0.0000000   0.3849002   0.1957433  )
        23        Mg     tau(  23) = (   0.3333333   0.3849002   0.1957433  )
        24        Mg     tau(  24) = (   0.6666667   0.3849002   0.1957433  )
        25        Mg     tau(  25) = (  -0.1666667   0.6735753   0.1957433  )
        26        Mg     tau(  26) = (   0.1666667   0.6735753   0.1957433  )
        27        Mg     tau(  27) = (   0.5000000   0.6735753   0.1957433  )
        28        Mg     tau(  28) = (   0.1666667   0.0962250   0.7225291  )
        29        Mg     tau(  29) = (   0.5000000   0.0962250   0.7225291  )
        30        Mg     tau(  30) = (   0.8333333   0.0962250   0.7225291  )
        31        Mg     tau(  31) = (   0.0000000   0.3849002   0.7225291  )
        32        Mg     tau(  32) = (   0.3333333   0.3849002   0.7225291  )
        33        Mg     tau(  33) = (   0.6666667   0.3849002   0.7225291  )
        34        Mg     tau(  34) = (  -0.1666667   0.6735753   0.7225291  )
        35        Mg     tau(  35) = (   0.1666667   0.6735753   0.7225291  )
        36        Mg     tau(  36) = (   0.5000000   0.6735753   0.7225291  )
        37        Mg     tau(  37) = (   0.0005275   0.0000000   0.0005557  )
        38        Mg     tau(  38) = (   0.3333333   0.0000000   0.0000000  )
        39        Mg     tau(  39) = (   0.6666667   0.0000000   0.0000000  )
        40        Mg     tau(  40) = (  -0.1666667   0.2886751   0.0000000  )
        41        Mg     tau(  41) = (   0.1666667   0.2886751   0.0000000  )
        42        Mg     tau(  42) = (   0.5000000   0.2886751   0.0000000  )
        43        Mg     tau(  43) = (   0.6666667   0.5773503   0.0000000  )
        44        Mg     tau(  44) = (  -0.0000000   0.5773503   0.0000000  )
        45        Mg     tau(  45) = (   0.3333333   0.5773503   0.0000000  )
        46        Mg     tau(  46) = (   0.0000000   0.0000000   0.5267857  )
        47        Mg     tau(  47) = (   0.3333333   0.0000000   0.5267857  )
        48        Mg     tau(  48) = (   0.6666667   0.0000000   0.5267857  )
        49        Mg     tau(  49) = (  -0.1666667   0.2886751   0.5267857  )
        50        Mg     tau(  50) = (   0.1666667   0.2886751   0.5267857  )
        51        Mg     tau(  51) = (   0.5000000   0.2886751   0.5267857  )
        52        Mg     tau(  52) = (   0.6666667   0.5773503   0.5267857  )
        53        Mg     tau(  53) = (  -0.0000000   0.5773503   0.5267857  )
        54        Mg     tau(  54) = (   0.3333333   0.5773503   0.5267857  )
        55        Bi     tau(  55) = (  -0.0000000   0.1924501   0.1157243  )
        56        Bi     tau(  56) = (   0.3333333   0.1924501   0.1157243  )
        57        Bi     tau(  57) = (   0.6666667   0.1924501   0.1157243  )
        58        Bi     tau(  58) = (  -0.1666667   0.4811252   0.1157243  )
        59        Bi     tau(  59) = (   0.1666667   0.4811252   0.1157243  )
        60        Bi     tau(  60) = (   0.5000000   0.4811252   0.1157243  )
        61        Bi     tau(  61) = (  -0.3333333   0.7698004   0.1157243  )
        62        Bi     tau(  62) = (  -0.0000000   0.7698004   0.1157243  )
        63        Bi     tau(  63) = (   0.3333333   0.7698004   0.1157243  )
        64        Bi     tau(  64) = (  -0.0000000   0.1924501   0.6425100  )
        65        Bi     tau(  65) = (   0.3333333   0.1924501   0.6425100  )
        66        Bi     tau(  66) = (   0.6666667   0.1924501   0.6425100  )
        67        Bi     tau(  67) = (  -0.1666667   0.4811252   0.6425100  )
        68        Bi     tau(  68) = (   0.1666667   0.4811252   0.6425100  )
        69        Bi     tau(  69) = (   0.5000000   0.4811252   0.6425100  )
        70        Bi     tau(  70) = (  -0.3333333   0.7698004   0.6425100  )
        71        Bi     tau(  71) = (  -0.0000000   0.7698004   0.6425100  )
        72        Bi     tau(  72) = (   0.3333333   0.7698004   0.6425100  )
        73        Bi     tau(  73) = (   0.1666667   0.0962250   0.4110615  )
        74        Bi     tau(  74) = (   0.5000000   0.0962250   0.4110615  )
        75        Bi     tau(  75) = (   0.8333333   0.0962250   0.4110615  )
        76        Bi     tau(  76) = (   0.0000000   0.3849002   0.4110615  )
        77        Bi     tau(  77) = (   0.3333333   0.3849002   0.4110615  )
        78        Bi     tau(  78) = (   0.6666667   0.3849002   0.4110615  )
        79        Bi     tau(  79) = (  -0.1666667   0.6735753   0.4110615  )
        80        Bi     tau(  80) = (   0.1666667   0.6735753   0.4110615  )
        81        Bi     tau(  81) = (   0.5000000   0.6735753   0.4110615  )
        82        Bi     tau(  82) = (   0.1666667   0.0962250   0.9378472  )
        83        Bi     tau(  83) = (   0.5000000   0.0962250   0.9378472  )
        84        Bi     tau(  84) = (   0.8333333   0.0962250   0.9378472  )
        85        Bi     tau(  85) = (   0.0000000   0.3849002   0.9378472  )
        86        Bi     tau(  86) = (   0.3333333   0.3849002   0.9378472  )
        87        Bi     tau(  87) = (   0.6666667   0.3849002   0.9378472  )
        88        Bi     tau(  88) = (  -0.1666667   0.6735753   0.9378472  )
        89        Bi     tau(  89) = (   0.1666667   0.6735753   0.9378472  )
        90        Bi     tau(  90) = (   0.5000000   0.6735753   0.9378472  )

   Crystallographic axes

     site n.     atom                  positions (cryst. coord.)
         1        Mg     tau(   1) = (  0.1111111  0.2222222  0.3142097  )
         2        Mg     tau(   2) = (  0.4444444  0.2222222  0.3142097  )
         3        Mg     tau(   3) = (  0.7777778  0.2222222  0.3142097  )
         4        Mg     tau(   4) = (  0.1111111  0.5555556  0.3142097  )
         5        Mg     tau(   5) = (  0.4444444  0.5555556  0.3142097  )
         6        Mg     tau(   6) = (  0.7777778  0.5555556  0.3142097  )
         7        Mg     tau(   7) = (  0.1111111  0.8888889  0.3142097  )
         8        Mg     tau(   8) = (  0.4444444  0.8888889  0.3142097  )
         9        Mg     tau(   9) = (  0.7777778  0.8888889  0.3142097  )
        10        Mg     tau(  10) = (  0.1111111  0.2222222  0.8142097  )
        11        Mg     tau(  11) = (  0.4444444  0.2222222  0.8142097  )
        12        Mg     tau(  12) = (  0.7777778  0.2222222  0.8142097  )
        13        Mg     tau(  13) = (  0.1111111  0.5555556  0.8142097  )
        14        Mg     tau(  14) = (  0.4444444  0.5555556  0.8142097  )
        15        Mg     tau(  15) = (  0.7777778  0.5555556  0.8142097  )
        16        Mg     tau(  16) = (  0.1111111  0.8888889  0.8142097  )
        17        Mg     tau(  17) = (  0.4444444  0.8888889  0.8142097  )
        18        Mg     tau(  18) = (  0.7777778  0.8888889  0.8142097  )
        19        Mg     tau(  19) = (  0.2222222  0.1111111  0.1857903  )
        20        Mg     tau(  20) = (  0.5555556  0.1111111  0.1857903  )
        21        Mg     tau(  21) = (  0.8888889  0.1111111  0.1857903  )
        22        Mg     tau(  22) = (  0.2222222  0.4444444  0.1857903  )
        23        Mg     tau(  23) = (  0.5555556  0.4444444  0.1857903  )
        24        Mg     tau(  24) = (  0.8888889  0.4444444  0.1857903  )
        25        Mg     tau(  25) = (  0.2222222  0.7777778  0.1857903  )
        26        Mg     tau(  26) = (  0.5555556  0.7777778  0.1857903  )
        27        Mg     tau(  27) = (  0.8888889  0.7777778  0.1857903  )
        28        Mg     tau(  28) = (  0.2222222  0.1111111  0.6857903  )
        29        Mg     tau(  29) = (  0.5555556  0.1111111  0.6857903  )
        30        Mg     tau(  30) = (  0.8888889  0.1111111  0.6857903  )
        31        Mg     tau(  31) = (  0.2222222  0.4444444  0.6857903  )
        32        Mg     tau(  32) = (  0.5555556  0.4444444  0.6857903  )
        33        Mg     tau(  33) = (  0.8888889  0.4444444  0.6857903  )
        34        Mg     tau(  34) = (  0.2222222  0.7777778  0.6857903  )
        35        Mg     tau(  35) = (  0.5555556  0.7777778  0.6857903  )
        36        Mg     tau(  36) = (  0.8888889  0.7777778  0.6857903  )
        37        Mg     tau(  37) = (  0.0005275  0.0000000  0.0005275  )
        38        Mg     tau(  38) = (  0.3333333  0.0000000  0.0000000  )
        39        Mg     tau(  39) = (  0.6666667  0.0000000  0.0000000  )
        40        Mg     tau(  40) = ( -0.0000000  0.3333333  0.0000000  )
        41        Mg     tau(  41) = (  0.3333333  0.3333333  0.0000000  )
        42        Mg     tau(  42) = (  0.6666667  0.3333333  0.0000000  )
        43        Mg     tau(  43) = (  1.0000000  0.6666667  0.0000000  )
        44        Mg     tau(  44) = (  0.3333333  0.6666667  0.0000000  )
        45        Mg     tau(  45) = (  0.6666667  0.6666667  0.0000000  )
        46        Mg     tau(  46) = (  0.0000000  0.0000000  0.5000000  )
        47        Mg     tau(  47) = (  0.3333333  0.0000000  0.5000000  )
        48        Mg     tau(  48) = (  0.6666667  0.0000000  0.5000000  )
        49        Mg     tau(  49) = ( -0.0000000  0.3333333  0.5000000  )
        50        Mg     tau(  50) = (  0.3333333  0.3333333  0.5000000  )
        51        Mg     tau(  51) = (  0.6666667  0.3333333  0.5000000  )
        52        Mg     tau(  52) = (  1.0000000  0.6666667  0.5000000  )
        53        Mg     tau(  53) = (  0.3333333  0.6666667  0.5000000  )
        54        Mg     tau(  54) = (  0.6666667  0.6666667  0.5000000  )
        55        Bi     tau(  55) = (  0.1111111  0.2222222  0.1098400  )
        56        Bi     tau(  56) = (  0.4444444  0.2222222  0.1098400  )
        57        Bi     tau(  57) = (  0.7777778  0.2222222  0.1098400  )
        58        Bi     tau(  58) = (  0.1111111  0.5555556  0.1098400  )
        59        Bi     tau(  59) = (  0.4444444  0.5555556  0.1098400  )
        60        Bi     tau(  60) = (  0.7777778  0.5555556  0.1098400  )
        61        Bi     tau(  61) = (  0.1111111  0.8888889  0.1098400  )
        62        Bi     tau(  62) = (  0.4444444  0.8888889  0.1098400  )
        63        Bi     tau(  63) = (  0.7777778  0.8888889  0.1098400  )
        64        Bi     tau(  64) = (  0.1111111  0.2222222  0.6098400  )
        65        Bi     tau(  65) = (  0.4444444  0.2222222  0.6098400  )
        66        Bi     tau(  66) = (  0.7777778  0.2222222  0.6098400  )
        67        Bi     tau(  67) = (  0.1111111  0.5555556  0.6098400  )
        68        Bi     tau(  68) = (  0.4444444  0.5555556  0.6098400  )
        69        Bi     tau(  69) = (  0.7777778  0.5555556  0.6098400  )
        70        Bi     tau(  70) = (  0.1111111  0.8888889  0.6098400  )
        71        Bi     tau(  71) = (  0.4444444  0.8888889  0.6098400  )
        72        Bi     tau(  72) = (  0.7777778  0.8888889  0.6098400  )
        73        Bi     tau(  73) = (  0.2222222  0.1111111  0.3901600  )
        74        Bi     tau(  74) = (  0.5555556  0.1111111  0.3901600  )
        75        Bi     tau(  75) = (  0.8888889  0.1111111  0.3901600  )
        76        Bi     tau(  76) = (  0.2222222  0.4444444  0.3901600  )
        77        Bi     tau(  77) = (  0.5555556  0.4444444  0.3901600  )
        78        Bi     tau(  78) = (  0.8888889  0.4444444  0.3901600  )
        79        Bi     tau(  79) = (  0.2222222  0.7777778  0.3901600  )
        80        Bi     tau(  80) = (  0.5555556  0.7777778  0.3901600  )
        81        Bi     tau(  81) = (  0.8888889  0.7777778  0.3901600  )
        82        Bi     tau(  82) = (  0.2222222  0.1111111  0.8901600  )
        83        Bi     tau(  83) = (  0.5555556  0.1111111  0.8901600  )
        84        Bi     tau(  84) = (  0.8888889  0.1111111  0.8901600  )
        85        Bi     tau(  85) = (  0.2222222  0.4444444  0.8901600  )
        86        Bi     tau(  86) = (  0.5555556  0.4444444  0.8901600  )
        87        Bi     tau(  87) = (  0.8888889  0.4444444  0.8901600  )
        88        Bi     tau(  88) = (  0.2222222  0.7777778  0.8901600  )
        89        Bi     tau(  89) = (  0.5555556  0.7777778  0.8901600  )
        90        Bi     tau(  90) = (  0.8888889  0.7777778  0.8901600  )

     number of k points=    36  Methfessel-Paxton smearing, width (Ry)=  0.0100
                       cart. coord. in units 2pi/alat
        k(    1) = (   0.0000000   0.0000000   0.0000000), wk =   0.0312500
        k(    2) = (   0.0000000   0.0000000   0.2372881), wk =   0.0625000
        k(    3) = (   0.0000000   0.0000000  -0.4745763), wk =   0.0312500
        k(    4) = (   0.0000000   0.2886751   0.0000000), wk =   0.0625000
        k(    5) = (   0.0000000   0.2886751   0.2372881), wk =   0.0625000
        k(    6) = (   0.0000000   0.2886751  -0.4745763), wk =   0.0625000
        k(    7) = (   0.0000000  -0.5773503   0.0000000), wk =   0.0312500
        k(    8) = (   0.0000000  -0.5773503   0.2372881), wk =   0.0625000
        k(    9) = (   0.0000000  -0.5773503  -0.4745763), wk =   0.0312500
        k(   10) = (   0.2500000   0.4330127   0.0000000), wk =   0.0625000
        k(   11) = (   0.2500000   0.4330127   0.2372881), wk =   0.0625000
        k(   12) = (   0.2500000   0.4330127  -0.4745763), wk =   0.0625000
        k(   13) = (  -0.2500000   0.1443376   0.0000000), wk =   0.0625000
        k(   14) = (   0.2500000   0.1443376   0.0000000), wk =   0.0625000
        k(   15) = (   0.0000000  -0.2886751   0.2372881), wk =   0.0625000
        k(   16) = (  -0.2500000   0.1443376   0.2372881), wk =   0.0625000
        k(   17) = (   0.2500000   0.1443376   0.2372881), wk =   0.0625000
        k(   18) = (  -0.2500000  -0.1443376   0.2372881), wk =   0.0625000
        k(   19) = (   0.2500000  -0.1443376   0.2372881), wk =   0.0625000
        k(   20) = (  -0.2500000   0.1443376  -0.4745763), wk =   0.0625000
        k(   21) = (   0.2500000   0.1443376  -0.4745763), wk =   0.0625000
        k(   22) = (   0.5000000  -0.2886751   0.0000000), wk =   0.0312500
        k(   23) = (  -0.5000000  -0.2886751   0.0000000), wk =   0.0312500
        k(   24) = (   0.5000000  -0.2886751   0.2372881), wk =   0.0625000
        k(   25) = (  -0.5000000  -0.2886751   0.2372881), wk =   0.0625000
        k(   26) = (   0.5000000  -0.2886751  -0.4745763), wk =   0.0312500
        k(   27) = (  -0.5000000  -0.2886751  -0.4745763), wk =   0.0312500
        k(   28) = (  -0.2500000   0.4330127   0.0000000), wk =   0.0625000
        k(   29) = (   0.5000000   0.0000000   0.0000000), wk =   0.0625000
        k(   30) = (  -0.2500000  -0.4330127   0.2372881), wk =   0.0625000
        k(   31) = (  -0.2500000   0.4330127  -0.2372881), wk =   0.0625000
        k(   32) = (   0.2500000  -0.4330127  -0.2372881), wk =   0.0625000
        k(   33) = (   0.5000000   0.0000000   0.2372881), wk =   0.0625000
        k(   34) = (  -0.5000000  -0.0000000   0.2372881), wk =   0.0625000
        k(   35) = (  -0.2500000   0.4330127   0.4745763), wk =   0.0625000
        k(   36) = (   0.5000000   0.0000000  -0.4745763), wk =   0.0625000

                       cryst. coord.
        k(    1) = (   0.0000000   0.0000000   0.0000000), wk =   0.0312500
        k(    2) = (   0.0000000   0.0000000   0.2500000), wk =   0.0625000
        k(    3) = (   0.0000000   0.0000000  -0.5000000), wk =   0.0312500
        k(    4) = (   0.0000000   0.2500000   0.0000000), wk =   0.0625000
        k(    5) = (   0.0000000   0.2500000   0.2500000), wk =   0.0625000
        k(    6) = (   0.0000000   0.2500000  -0.5000000), wk =   0.0625000
        k(    7) = (   0.0000000  -0.5000000   0.0000000), wk =   0.0312500
        k(    8) = (   0.0000000  -0.5000000   0.2500000), wk =   0.0625000
        k(    9) = (   0.0000000  -0.5000000  -0.5000000), wk =   0.0312500
        k(   10) = (   0.2500000   0.2500000   0.0000000), wk =   0.0625000
        k(   11) = (   0.2500000   0.2500000   0.2500000), wk =   0.0625000
        k(   12) = (   0.2500000   0.2500000  -0.5000000), wk =   0.0625000
        k(   13) = (  -0.2500000   0.2500000   0.0000000), wk =   0.0625000
        k(   14) = (   0.2500000  -0.0000000   0.0000000), wk =   0.0625000
        k(   15) = (   0.0000000  -0.2500000   0.2500000), wk =   0.0625000
        k(   16) = (  -0.2500000   0.2500000   0.2500000), wk =   0.0625000
        k(   17) = (   0.2500000  -0.0000000   0.2500000), wk =   0.0625000
        k(   18) = (  -0.2500000   0.0000000   0.2500000), wk =   0.0625000
        k(   19) = (   0.2500000  -0.2500000   0.2500000), wk =   0.0625000
        k(   20) = (  -0.2500000   0.2500000  -0.5000000), wk =   0.0625000
        k(   21) = (   0.2500000  -0.0000000  -0.5000000), wk =   0.0625000
        k(   22) = (   0.5000000  -0.5000000   0.0000000), wk =   0.0312500
        k(   23) = (  -0.5000000   0.0000000   0.0000000), wk =   0.0312500
        k(   24) = (   0.5000000  -0.5000000   0.2500000), wk =   0.0625000
        k(   25) = (  -0.5000000   0.0000000   0.2500000), wk =   0.0625000
        k(   26) = (   0.5000000  -0.5000000  -0.5000000), wk =   0.0312500
        k(   27) = (  -0.5000000   0.0000000  -0.5000000), wk =   0.0312500
        k(   28) = (  -0.2500000   0.5000000   0.0000000), wk =   0.0625000
        k(   29) = (   0.5000000  -0.2500000   0.0000000), wk =   0.0625000
        k(   30) = (  -0.2500000  -0.2500000   0.2500000), wk =   0.0625000
        k(   31) = (  -0.2500000   0.5000000  -0.2500000), wk =   0.0625000
        k(   32) = (   0.2500000  -0.5000000  -0.2500000), wk =   0.0625000
        k(   33) = (   0.5000000  -0.2500000   0.2500000), wk =   0.0625000
        k(   34) = (  -0.5000000   0.2500000   0.2500000), wk =   0.0625000
        k(   35) = (  -0.2500000   0.5000000   0.5000000), wk =   0.0625000
        k(   36) = (   0.5000000  -0.2500000  -0.5000000), wk =   0.0625000

     Dense  grid:  4436351 G-vectors     FFT dimensions: ( 216, 216, 225)

     Dynamical RAM for                 wfc:      68.54 MB

     Dynamical RAM for     wfc (w. buffer):     891.04 MB

     Dynamical RAM for           str. fact:       1.69 MB

     Dynamical RAM for           local pot:       0.00 MB

     Dynamical RAM for          nlocal pot:     114.24 MB

     Dynamical RAM for                qrad:       4.06 MB

     Dynamical RAM for          rho,v,vnew:       5.74 MB

     Dynamical RAM for               rhoin:       1.91 MB

     Dynamical RAM for            rho*nmix:      13.54 MB

     Dynamical RAM for           G-vectors:       3.60 MB

     Dynamical RAM for          h,s,v(r/c):       2.14 MB

     Dynamical RAM for          <psi|beta>:      10.68 MB

     Dynamical RAM for                 psi:     137.08 MB

     Dynamical RAM for                hpsi:     137.08 MB

     Dynamical RAM for      wfcinit/wfcrot:     146.70 MB

     Estimated static dynamical RAM per process >       1.01 GB

     Estimated max dynamical RAM per process >       1.30 GB

     Estimated total dynamical RAM >     309.76 GB

     Initial potential from superposition of free atoms

     starting charge    1079.9367, renormalised to    1080.0000
     Starting wfcs are  594 randomized atomic wfcs +   54 random wfcs

     total cpu time spent up to now is      153.3 secs

     per-process dynamical memory:  1312.5 Mb

     Self-consistent Calculation

     iteration #  1     ecut=   160.00 Ry     beta= 0.30
     Davidson diagonalization with overlap

---- Real-time Memory Report at c_bands before calling an iterative solver
          1475 MiB given to the printing process from OS
          1281 MiB allocation reported by mallinfo(arena+hblkhd)
        670828 MiB available memory on the node where the printing process lives
------------------
     ethr =  1.00E-02,  avg # of iterations =  5.6

     Threshold (ethr) on eigenvalues was too large:
     Diagonalizing with lowered threshold

     Davidson diagonalization with overlap

---- Real-time Memory Report at c_bands before calling an iterative solver
          1688 MiB given to the printing process from OS
          1289 MiB allocation reported by mallinfo(arena+hblkhd)
        670732 MiB available memory on the node where the printing process lives
------------------
     ethr =  2.09E-04,  avg # of iterations = 11.8

     total cpu time spent up to now is     1111.5 secs

     total energy              =  -12302.34307652 Ry
     estimated scf accuracy    <       2.10892890 Ry

     iteration #  2     ecut=   160.00 Ry     beta= 0.30
     Davidson diagonalization with overlap

---- Real-time Memory Report at c_bands before calling an iterative solver
          1693 MiB given to the printing process from OS
          1289 MiB allocation reported by mallinfo(arena+hblkhd)
        670632 MiB available memory on the node where the printing process lives
------------------
     ethr =  1.95E-04,  avg # of iterations =  2.5

     total cpu time spent up to now is     1485.6 secs

     total energy              =  -12302.23002655 Ry
     estimated scf accuracy    <       0.56363985 Ry

     iteration #  3     ecut=   160.00 Ry     beta= 0.30
     Davidson diagonalization with overlap

---- Real-time Memory Report at c_bands before calling an iterative solver
          1702 MiB given to the printing process from OS
          1294 MiB allocation reported by mallinfo(arena+hblkhd)
        670342 MiB available memory on the node where the printing process lives
------------------
     c_bands:  1 eigenvalues not converged
     ethr =  5.22E-05,  avg # of iterations =  9.3

     total cpu time spent up to now is     1950.4 secs

     total energy              =  -12302.28428048 Ry
     estimated scf accuracy    <       0.05249268 Ry

     iteration #  4     ecut=   160.00 Ry     beta= 0.30
     Davidson diagonalization with overlap

---- Real-time Memory Report at c_bands before calling an iterative solver
          1707 MiB given to the printing process from OS
          1301 MiB allocation reported by mallinfo(arena+hblkhd)
        670200 MiB available memory on the node where the printing process lives
------------------
     c_bands:  1 eigenvalues not converged
     c_bands:  1 eigenvalues not converged
     ethr =  4.86E-06,  avg # of iterations = 15.3

     total cpu time spent up to now is     2462.7 secs

     total energy              =  -12302.28517716 Ry
     estimated scf accuracy    <       0.01487209 Ry

     iteration #  5     ecut=   160.00 Ry     beta= 0.30
     Davidson diagonalization with overlap

---- Real-time Memory Report at c_bands before calling an iterative solver
          1712 MiB given to the printing process from OS
          1303 MiB allocation reported by mallinfo(arena+hblkhd)
        670072 MiB available memory on the node where the printing process lives
------------------
     ethr =  1.38E-06,  avg # of iterations =  2.5

     total cpu time spent up to now is     2872.2 secs

     total energy              =  -12302.28605564 Ry
     estimated scf accuracy    <       0.00164380 Ry

     iteration #  6     ecut=   160.00 Ry     beta= 0.30
     Davidson diagonalization with overlap

---- Real-time Memory Report at c_bands before calling an iterative solver
          1714 MiB given to the printing process from OS
          1303 MiB allocation reported by mallinfo(arena+hblkhd)
        669993 MiB available memory on the node where the printing process lives
------------------
     ethr =  1.52E-07,  avg # of iterations =  2.0

     total cpu time spent up to now is     3230.0 secs

     total energy              =  -12302.28605775 Ry
     estimated scf accuracy    <       0.00133732 Ry

     iteration #  7     ecut=   160.00 Ry     beta= 0.30
     Davidson diagonalization with overlap

---- Real-time Memory Report at c_bands before calling an iterative solver
          1715 MiB given to the printing process from OS
          1303 MiB allocation reported by mallinfo(arena+hblkhd)
        669894 MiB available memory on the node where the printing process lives
------------------
     ethr =  1.24E-07,  avg # of iterations =  2.0

     total cpu time spent up to now is     3575.1 secs

     total energy              =  -12302.28618470 Ry
     estimated scf accuracy    <       0.00005243 Ry

     iteration #  8     ecut=   160.00 Ry     beta= 0.30
     Davidson diagonalization with overlap

---- Real-time Memory Report at c_bands before calling an iterative solver
          1717 MiB given to the printing process from OS
          1303 MiB allocation reported by mallinfo(arena+hblkhd)
        669825 MiB available memory on the node where the printing process lives
------------------
     ethr =  4.85E-09,  avg # of iterations =  2.6

     total cpu time spent up to now is     3998.4 secs

     total energy              =  -12302.28619361 Ry
     estimated scf accuracy    <       0.00002142 Ry

     iteration #  9     ecut=   160.00 Ry     beta= 0.30
     Davidson diagonalization with overlap

---- Real-time Memory Report at c_bands before calling an iterative solver
          1719 MiB given to the printing process from OS
          1309 MiB allocation reported by mallinfo(arena+hblkhd)
        669787 MiB available memory on the node where the printing process lives
------------------
     ethr =  1.98E-09,  avg # of iterations =  2.0

     total cpu time spent up to now is     4356.5 secs

     total energy              =  -12302.28619511 Ry
     estimated scf accuracy    <       0.00000355 Ry

     iteration # 10     ecut=   160.00 Ry     beta= 0.30
     Davidson diagonalization with overlap

---- Real-time Memory Report at c_bands before calling an iterative solver
          1719 MiB given to the printing process from OS
          1309 MiB allocation reported by mallinfo(arena+hblkhd)
        669605 MiB available memory on the node where the printing process lives
------------------
     ethr =  3.29E-10,  avg # of iterations =  2.0

     total cpu time spent up to now is     4738.1 secs

     total energy              =  -12302.28619545 Ry
     estimated scf accuracy    <       0.00000037 Ry

     iteration # 11     ecut=   160.00 Ry     beta= 0.30
     Davidson diagonalization with overlap

---- Real-time Memory Report at c_bands before calling an iterative solver
          1719 MiB given to the printing process from OS
          1309 MiB allocation reported by mallinfo(arena+hblkhd)
        669574 MiB available memory on the node where the printing process lives
------------------
     ethr =  3.39E-11,  avg # of iterations =  2.1

     total cpu time spent up to now is     5096.5 secs

     total energy              =  -12302.28619549 Ry
     estimated scf accuracy    <       0.00000019 Ry

     iteration # 12     ecut=   160.00 Ry     beta= 0.30
     Davidson diagonalization with overlap

---- Real-time Memory Report at c_bands before calling an iterative solver
          1719 MiB given to the printing process from OS
          1309 MiB allocation reported by mallinfo(arena+hblkhd)
        669574 MiB available memory on the node where the printing process lives
------------------
     ethr =  1.73E-11,  avg # of iterations =  2.0

     total cpu time spent up to now is     5445.0 secs

     total energy              =  -12302.28619551 Ry
     estimated scf accuracy    <       0.00000003 Ry

     iteration # 13     ecut=   160.00 Ry     beta= 0.30
     Davidson diagonalization with overlap

---- Real-time Memory Report at c_bands before calling an iterative solver
          1719 MiB given to the printing process from OS
          1309 MiB allocation reported by mallinfo(arena+hblkhd)
        669542 MiB available memory on the node where the printing process lives
------------------
     ethr =  2.79E-12,  avg # of iterations =  2.0

     total cpu time spent up to now is     5798.2 secs

     total energy              =  -12302.28619551 Ry
     estimated scf accuracy    <          8.0E-09 Ry

     iteration # 14     ecut=   160.00 Ry     beta= 0.30
     Davidson diagonalization with overlap

---- Real-time Memory Report at c_bands before calling an iterative solver
          1719 MiB given to the printing process from OS
          1309 MiB allocation reported by mallinfo(arena+hblkhd)
        669560 MiB available memory on the node where the printing process lives
------------------
     ethr =  7.37E-13,  avg # of iterations =  2.0

     total cpu time spent up to now is     6147.3 secs

     total energy              =  -12302.28619551 Ry
     estimated scf accuracy    <          7.9E-10 Ry

     iteration # 15     ecut=   160.00 Ry     beta= 0.30
     Davidson diagonalization with overlap

---- Real-time Memory Report at c_bands before calling an iterative solver
          1719 MiB given to the printing process from OS
          1309 MiB allocation reported by mallinfo(arena+hblkhd)
        669548 MiB available memory on the node where the printing process lives
------------------
     ethr =  1.00E-13,  avg # of iterations =  2.0

     total cpu time spent up to now is     6515.2 secs

     total energy              =  -12302.28619551 Ry
     estimated scf accuracy    <          1.9E-10 Ry

     iteration # 16     ecut=   160.00 Ry     beta= 0.30
     Davidson diagonalization with overlap

---- Real-time Memory Report at c_bands before calling an iterative solver
          1720 MiB given to the printing process from OS
          1309 MiB allocation reported by mallinfo(arena+hblkhd)
        669547 MiB available memory on the node where the printing process lives
------------------
     ethr =  1.00E-13,  avg # of iterations =  1.0

     total cpu time spent up to now is     6817.9 secs

     End of self-consistent calculation

          k = 0.0000 0.0000 0.0000 (554781 PWs)   bands (ev):

   -68.2851 -68.2849 -68.2848 -68.2848 -68.2846 -68.2846 -68.2846 -68.2846
   -68.2846 -68.2846 -68.2846 -68.2846 -68.2846 -68.2845 -68.2844 -68.2844
   -68.2842 -68.2841 -67.7467 -67.7456 -67.7455 -67.7452 -67.7448 -67.7446
   -67.7446 -67.7445 -67.7444 -67.7444 -67.7444 -67.7443 -67.7442 -67.7442
   -67.7441 -67.7441 -67.7440 -67.7440 -67.7440 -67.7439 -67.7438 -67.7438
   -67.7438 -67.7437 -67.7436 -67.7436 -67.7435 -67.7435 -67.7434 -67.7433
   -67.7433 -67.7431 -67.7428 -67.7424 -67.7423 -67.7412 -35.6961 -35.6960
   -35.6959 -35.6959 -35.6957 -35.6957 -35.6957 -35.6957 -35.6956 -35.6956
   -35.6956 -35.6956 -35.6956 -35.6956 -35.6954 -35.6954 -35.6953 -35.6952
   -35.6912 -35.6912 -35.6911 -35.6911 -35.6910 -35.6910 -35.6910 -35.6909
   -35.6908 -35.6908 -35.6908 -35.6908 -35.6908 -35.6907 -35.6907 -35.6907
   -35.6907 -35.6907 -35.6907 -35.6907 -35.6907 -35.6907 -35.6907 -35.6907
   -35.6907 -35.6907 -35.6906 -35.6906 -35.6905 -35.6905 -35.6905 -35.6905
   -35.6904 -35.6903 -35.6903 -35.6902 -35.1792 -35.1789 -35.1784 -35.1783
   -35.1782 -35.1781 -35.1779 -35.1778 -35.1777 -35.1776 -35.1775 -35.1775
   -35.1774 -35.1774 -35.1774 -35.1774 -35.1772 -35.1771 -35.1771 -35.1771
   -35.1771 -35.1770 -35.1770 -35.1770 -35.1770 -35.1770 -35.1770 -35.1769
   -35.1768 -35.1767 -35.1766 -35.1765 -35.1764 -35.1763 -35.1763 -35.1762
   -35.1761 -35.1761 -35.1760 -35.1760 -35.1759 -35.1758 -35.1757 -35.1757
   -35.1756 -35.1755 -35.1751 -35.1750 -35.1749 -35.1746 -35.1746 -35.1743
   -35.1742 -35.1731 -35.1721 -35.1717 -35.1714 -35.1712 -35.1712 -35.1710
   -35.1710 -35.1708 -35.1707 -35.1705 -35.1705 -35.1705 -35.1704 -35.1704
   -35.1703 -35.1703 -35.1701 -35.1700 -35.1699 -35.1698 -35.1697 -35.1696
   -35.1695 -35.1695 -35.1695 -35.1694 -35.1693 -35.1691 -35.1690 -35.1689
   -35.1689 -35.1688 -35.1687 -35.1687 -35.1686 -35.1685 -35.1685 -35.1685
   -35.1684 -35.1684 -35.1683 -35.1682 -35.1682 -35.1681 -35.1680 -35.1680
   -35.1679 -35.1678 -35.1677 -35.1677 -35.1673 -35.1672 -35.1669 -35.1663
   -14.2175 -14.2171 -14.2163 -14.2162 -14.2161 -14.2160 -14.2159 -14.2158
   -14.2158 -14.2156 -14.2156 -14.2153 -14.2147 -14.2146 -14.2136 -14.2133
   -14.2128 -14.2127 -14.2122 -14.2120 -14.2112 -14.2109 -14.2101 -14.2101
   -14.2098 -14.2098 -14.2097 -14.2097 -14.2096 -14.2096 -14.2095 -14.2095
   -14.2095 -14.2094 -14.2094 -14.2094 -14.2093 -14.2093 -14.2093 -14.2092
   -14.2091 -14.2091 -14.2091 -14.2090 -14.2089 -14.2087 -14.2085 -14.2085
   -14.2084 -14.2083 -14.2083 -14.2082 -14.2079 -14.2078 -14.2071 -14.2070
   -14.2055 -14.2054 -14.2052 -14.2051 -14.2050 -14.2049 -14.2048 -14.2047
   -14.2045 -14.2044 -14.2042 -14.2042 -14.2038 -14.2036 -14.2028 -14.2024
   -14.1902 -14.1889 -14.1884 -14.1880 -14.1879 -14.1877 -14.1876 -14.1874
   -14.1871 -14.1869 -14.1868 -14.1866 -14.1866 -14.1865 -14.1863 -14.1859
   -14.1847 -14.1844 -14.1841 -14.1840 -14.1839 -14.1839 -14.1838 -14.1837
   -14.1837 -14.1835 -14.1834 -14.1834 -14.1834 -14.1834 -14.1833 -14.1831
   -14.1831 -14.1829 -14.1825 -14.1809 -14.1749 -14.1747 -14.1743 -14.1743
   -14.1732 -14.1731 -14.1720 -14.1719 -14.1715 -14.1714 -14.1712 -14.1711
   -14.1711 -14.1708 -14.1708 -14.1708 -14.1707 -14.1706 -14.1705 -14.1704
   -14.1704 -14.1704 -14.1703 -14.1702 -14.1701 -14.1699 -14.1699 -14.1699
   -14.1698 -14.1695 -14.1693 -14.1691 -14.1650 -14.1648 -14.1643 -14.1643
   -14.1638 -14.1638 -14.1636 -14.1635 -14.1634 -14.1634 -14.1633 -14.1633
   -14.1632 -14.1632 -14.1631 -14.1631 -14.1631 -14.1628 -14.1623 -14.1620
   -14.1601 -14.1599 -14.1598 -14.1596 -14.1595 -14.1593 -14.1582 -14.1581
   -14.1580 -14.1578 -14.1577 -14.1576 -14.1574 -14.1573 -14.1571 -14.1569
   -14.1568 -14.1566 -14.1562 -14.1558  -3.7274  -3.4528  -3.1822  -3.1816
    -3.1814  -3.1811  -3.1809  -3.1804  -3.1333  -2.9847  -2.9840  -2.9838
    -2.9835  -2.9833  -2.9827  -2.7858  -2.7853  -2.7851  -2.7848  -2.7846
    -2.7841  -2.7369  -2.6534  -2.6530  -2.6524  -2.6520  -2.6414  -2.6410
    -2.6405  -2.6400  -2.5522  -2.5517  -2.5516  -2.5512  -2.5511  -2.5505
     2.9723   3.4954   3.4957   3.4959   3.4961   3.4962   3.4965   3.5758
     3.5758   3.6376   3.6379   3.6384   3.6386   3.7568   3.7572   3.7572
     3.7574   3.7574   3.7578   3.8444   3.8448   3.8450   3.8450   3.8453
     3.8456   3.9017   3.9017   3.9890   3.9893   3.9895   3.9896   3.9897
     3.9901   4.3241   4.3243   4.3253   4.3255   4.5245   4.7005   4.7009
     4.7011   4.7013   4.7014   4.7019   4.7409   4.7409   4.7896   5.3973
     5.3977   5.3978   5.3982   5.5462   5.5462   5.9281   5.9285   5.9287
     5.9288   5.9290   5.9294   6.0114   6.0120   6.0122   6.0123   6.0125
     6.0131   6.3258   6.3261   6.3265   6.3268   6.3271   6.3275   6.3492
     6.3495   6.3498   6.3499   6.3501   6.3505   6.6929   6.6932   6.6934
     6.6935   6.6936   6.6939   6.7781   6.7785   6.7788   6.7790   6.7793
     6.7797   7.0101   7.0101   7.0936   7.0937   7.0940   7.0940   7.3701
     7.3702   7.3759   7.3760   7.4268   7.4273   7.4274   7.4275   7.4276
     7.4282   7.7583   7.7583   7.9798   8.0329   8.2485   8.2485   8.5196
     8.5200   8.5201   8.5203   8.5204   8.5208   8.6126   8.6131   8.6132
     8.6135   8.6135   8.6140   8.9077   9.2273   9.4271   9.4436   9.4438
     9.4441   9.4442   9.4446   9.4448   9.5362   9.5365   9.5365   9.5369
     9.8015   9.8016   9.8018   9.8021   9.8023   9.8024  10.4636  10.4636
    10.4780  10.4781  10.4782  10.4783  10.4785  10.4786  10.4938  10.4940
    10.4942  10.4942  10.4944  10.4946  10.6763  10.6763  10.7978  10.7978
    10.9055  10.9059  10.9062  10.9062  10.9065  10.9069  11.0446  11.0448
    11.0450  11.0451  11.0453  11.0455  11.2117  11.2117  11.5710  11.6926
    11.6926  11.8865  12.0801  12.0806  12.0808  12.0809  12.0811  12.0815
    12.1596  12.1596  12.2243  12.2700  12.2702  12.2706  12.2707  12.3518
    12.3518  12.4834  12.4841  12.4842  12.4842  12.4843  12.4850  12.5788
    12.7697  12.7698  12.7702  12.7704  12.7950  12.7951  12.7953  12.7954
    12.7956  12.7958  13.0522  13.0523  13.1213  13.1217  13.1217  13.1221

     occupation numbers 
     1.0000   1.0000   1.0000   1.0000   1.0000   1.0000   1.0000   1.0000
     1.0000   1.0000   1.0000   1.0000   1.0000   1.0000   1.0000   1.0000
     1.0000   1.0000   1.0000   1.0000   1.0000   1.0000   1.0000   1.0000
     1.0000   1.0000   1.0000   1.0000   1.0000   1.0000   1.0000   1.0000
     1.0000   1.0000   1.0000   1.0000   1.0000   1.0000   1.0000   1.0000
     1.0000   1.0000   1.0000   1.0000   1.0000   1.0000   1.0000   1.0000
     1.0000   1.0000   1.0000   1.0000   1.0000   1.0000   1.0000   1.0000
     1.0000   1.0000   1.0000   1.0000   1.0000   1.0000   1.0000   1.0000
     1.0000   1.0000   1.0000   1.0000   1.0000   1.0000   1.0000   1.0000
     1.0000   1.0000   1.0000   1.0000   1.0000   1.0000   1.0000   1.0000
     1.0000   1.0000   1.0000   1.0000   1.0000   1.0000   1.0000   1.0000
     1.0000   1.0000   1.0000   1.0000   1.0000   1.0000   1.0000   1.0000
     1.0000   1.0000   1.0000   1.0000   1.0000   1.0000   1.0000   1.0000
     1.0000   1.0000   1.0000   1.0000   1.0000   1.0000   1.0000   1.0000
     1.0000   1.0000   1.0000   1.0000   1.0000   1.0000   1.0000   1.0000
     1.0000   1.0000   1.0000   1.0000   1.0000   1.0000   1.0000   1.0000
     1.0000   1.0000   1.0000   1.0000   1.0000   1.0000   1.0000   1.0000
     1.0000   1.0000   1.0000   1.0000   1.0000   1.0000   1.0000   1.0000
     1.0000   1.0000   1.0000   1.0000   1.0000   1.0000   1.0000   1.0000
     1.0000   1.0000   1.0000   1.0000   1.0000   1.0000   1.0000   1.0000
     1.0000   1.0000   1.0000   1.0000   1.0000   1.0000   1.0000   1.0000
     1.0000   1.0000   1.0000   1.0000   1.0000   1.0000   1.0000   1.0000
     1.0000   1.0000   1.0000   1.0000   1.0000   1.0000   1.0000   1.0000
     1.0000   1.0000   1.0000   1.0000   1.0000   1.0000   1.0000   1.0000
     1.0000   1.0000   1.0000   1.0000   1.0000   1.0000   1.0000   1.0000
     1.0000   1.0000   1.0000   1.0000   1.0000   1.0000   1.0000   1.0000
     1.0000   1.0000   1.0000   1.0000   1.0000   1.0000   1.0000   1.0000
     1.0000   1.0000   1.0000   1.0000   1.0000   1.0000   1.0000   1.0000
     1.0000   1.0000   1.0000   1.0000   1.0000   1.0000   1.0000   1.0000
     1.0000   1.0000   1.0000   1.0000   1.0000   1.0000   1.0000   1.0000
     1.0000   1.0000   1.0000   1.0000   1.0000   1.0000   1.0000   1.0000
     1.0000   1.0000   1.0000   1.0000   1.0000   1.0000   1.0000   1.0000
     1.0000   1.0000   1.0000   1.0000   1.0000   1.0000   1.0000   1.0000
     1.0000   1.0000   1.0000   1.0000   1.0000   1.0000   1.0000   1.0000
     1.0000   1.0000   1.0000   1.0000   1.0000   1.0000   1.0000   1.0000
     1.0000   1.0000   1.0000   1.0000   1.0000   1.0000   1.0000   1.0000
     1.0000   1.0000   1.0000   1.0000   1.0000   1.0000   1.0000   1.0000
     1.0000   1.0000   1.0000   1.0000   1.0000   1.0000   1.0000   1.0000
     1.0000   1.0000   1.0000   1.0000   1.0000   1.0000   1.0000   1.0000
     1.0000   1.0000   1.0000   1.0000   1.0000   1.0000   1.0000   1.0000
     1.0000   1.0000   1.0000   1.0000   1.0000   1.0000   1.0000   1.0000
     1.0000   1.0000   1.0000   1.0000   1.0000   1.0000   1.0000   1.0000
     1.0000   1.0000   1.0000   1.0000   1.0000   1.0000   1.0000   1.0000
     1.0000   1.0000   1.0000   1.0000   1.0000   1.0000   1.0000   1.0000
     1.0000   1.0000   1.0000   1.0000   1.0000   1.0000   1.0000   1.0000
     1.0000   1.0000   1.0000   1.0000   1.0000   1.0000   1.0000   1.0000
     1.0000   1.0000   1.0000   1.0000   1.0000   1.0000   1.0000   1.0000
     1.0000   1.0000   1.0000   1.0000   1.0000   1.0000   1.0000   1.0000
     1.0000   1.0000   1.0000   1.0000   1.0000   1.0000   1.0000   1.0000
     1.0000   1.0000   1.0000   1.0000   1.0000   1.0000   1.0000   1.0000
     1.0000   1.0000   1.0000   1.0000   1.0000   1.0000   1.0000   1.0000
     1.0000   1.0000   1.0000   1.0000   1.0000   1.0000   1.0000   1.0000
     1.0000   1.0000   1.0000   1.0000   1.0000   1.0000   1.0000   1.0000
     1.0000   1.0000   1.0000   1.0000   1.0000   1.0000   1.0000   1.0000
     1.0000   1.0000   1.0000   1.0000   1.0000   1.0000   1.0000   1.0000
     1.0000   1.0000   1.0000   1.0000   1.0000   1.0000   1.0000   1.0000
     1.0000   1.0000   1.0000   1.0000   1.0000   1.0000   1.0000   1.0000
     1.0000   1.0000   1.0000   1.0000   1.0000   1.0000   1.0000   1.0000
     1.0000   1.0000   1.0000   1.0000   1.0000   1.0000   1.0000   1.0000
     1.0000   1.0000   1.0000   1.0000   1.0000   1.0000   1.0000   1.0000
     1.0000   1.0000   1.0000   1.0000   1.0000   1.0000   1.0000   1.0000
     1.0000   1.0000   1.0000   1.0000   1.0000   1.0000   1.0000   1.0000
     1.0000   1.0000   1.0000   1.0000   1.0000   1.0000   1.0000   1.0000
     1.0000   1.0000   1.0000   1.0000   1.0000   1.0000   1.0000   1.0000
     1.0000   1.0000   1.0000   1.0000   1.0000   1.0000   1.0000   1.0000
     1.0000   1.0000   1.0000   1.0000   1.0000   1.0000   1.0000   1.0000
     1.0000   1.0000   1.0000   1.0000   1.0000   1.0000   1.0000   1.0000
     1.0000   1.0224   1.0224   0.4879   0.1867  -0.0083  -0.0083  -0.0000
    -0.0000  -0.0000  -0.0000  -0.0000  -0.0000  -0.0000  -0.0000  -0.0000
    -0.0000  -0.0000  -0.0000  -0.0000  -0.0000  -0.0000  -0.0000  -0.0000
    -0.0000  -0.0000  -0.0000  -0.0000  -0.0000  -0.0000  -0.0000  -0.0000
    -0.0000  -0.0000  -0.0000  -0.0000  -0.0000  -0.0000  -0.0000  -0.0000
    -0.0000  -0.0000  -0.0000  -0.0000  -0.0000  -0.0000  -0.0000  -0.0000
    -0.0000  -0.0000  -0.0000  -0.0000  -0.0000  -0.0000  -0.0000  -0.0000
    -0.0000  -0.0000  -0.0000  -0.0000  -0.0000  -0.0000  -0.0000  -0.0000
    -0.0000  -0.0000  -0.0000  -0.0000  -0.0000  -0.0000  -0.0000  -0.0000
    -0.0000  -0.0000  -0.0000  -0.0000  -0.0000  -0.0000  -0.0000  -0.0000
    -0.0000  -0.0000  -0.0000  -0.0000  -0.0000  -0.0000  -0.0000  -0.0000
    -0.0000  -0.0000  -0.0000  -0.0000  -0.0000  -0.0000  -0.0000  -0.0000
    -0.0000  -0.0000  -0.0000  -0.0000  -0.0000  -0.0000  -0.0000  -0.0000
    -0.0000  -0.0000  -0.0000  -0.0000  -0.0000  -0.0000  -0.0000  -0.0000

          k = 0.0000 0.0000 0.2373 (554553 PWs)   bands (ev):

   -68.2851 -68.2849 -68.2848 -68.2848 -68.2846 -68.2846 -68.2846 -68.2846
   -68.2846 -68.2846 -68.2846 -68.2846 -68.2846 -68.2845 -68.2844 -68.2844
   -68.2842 -68.2841 -67.7467 -67.7456 -67.7455 -67.7452 -67.7448 -67.7446
   -67.7446 -67.7445 -67.7444 -67.7444 -67.7444 -67.7443 -67.7442 -67.7442
   -67.7441 -67.7441 -67.7440 -67.7440 -67.7440 -67.7439 -67.7438 -67.7438
   -67.7438 -67.7437 -67.7436 -67.7436 -67.7435 -67.7435 -67.7434 -67.7433
   -67.7433 -67.7431 -67.7428 -67.7424 -67.7423 -67.7412 -35.6961 -35.6960
   -35.6959 -35.6959 -35.6957 -35.6957 -35.6957 -35.6957 -35.6956 -35.6956
   -35.6956 -35.6956 -35.6956 -35.6956 -35.6954 -35.6954 -35.6953 -35.6952
   -35.6912 -35.6912 -35.6911 -35.6911 -35.6910 -35.6910 -35.6910 -35.6909
   -35.6908 -35.6908 -35.6908 -35.6908 -35.6908 -35.6907 -35.6907 -35.6907
   -35.6907 -35.6907 -35.6907 -35.6907 -35.6907 -35.6907 -35.6907 -35.6907
   -35.6907 -35.6907 -35.6906 -35.6906 -35.6905 -35.6905 -35.6905 -35.6905
   -35.6904 -35.6903 -35.6903 -35.6902 -35.1792 -35.1789 -35.1784 -35.1783
   -35.1782 -35.1781 -35.1779 -35.1778 -35.1777 -35.1776 -35.1775 -35.1775
   -35.1774 -35.1774 -35.1774 -35.1774 -35.1772 -35.1771 -35.1771 -35.1771
   -35.1771 -35.1770 -35.1770 -35.1770 -35.1770 -35.1770 -35.1770 -35.1769
   -35.1768 -35.1767 -35.1766 -35.1765 -35.1764 -35.1763 -35.1763 -35.1762
   -35.1761 -35.1761 -35.1760 -35.1760 -35.1759 -35.1758 -35.1757 -35.1757
   -35.1756 -35.1755 -35.1751 -35.1750 -35.1749 -35.1746 -35.1746 -35.1743
   -35.1742 -35.1731 -35.1721 -35.1717 -35.1714 -35.1712 -35.1712 -35.1710
   -35.1710 -35.1708 -35.1707 -35.1705 -35.1705 -35.1705 -35.1704 -35.1704
   -35.1703 -35.1703 -35.1701 -35.1700 -35.1699 -35.1698 -35.1697 -35.1696
   -35.1695 -35.1695 -35.1695 -35.1694 -35.1693 -35.1691 -35.1690 -35.1689
   -35.1689 -35.1688 -35.1687 -35.1687 -35.1686 -35.1685 -35.1685 -35.1685
   -35.1684 -35.1684 -35.1683 -35.1682 -35.1682 -35.1681 -35.1680 -35.1680
   -35.1679 -35.1678 -35.1677 -35.1677 -35.1673 -35.1672 -35.1669 -35.1663
   -14.2176 -14.2172 -14.2165 -14.2163 -14.2163 -14.2161 -14.2158 -14.2158
   -14.2157 -14.2154 -14.2154 -14.2152 -14.2144 -14.2143 -14.2135 -14.2132
   -14.2131 -14.2130 -14.2124 -14.2122 -14.2113 -14.2109 -14.2102 -14.2101
   -14.2100 -14.2099 -14.2098 -14.2097 -14.2097 -14.2096 -14.2096 -14.2095
   -14.2095 -14.2093 -14.2093 -14.2093 -14.2092 -14.2092 -14.2092 -14.2091
   -14.2091 -14.2090 -14.2089 -14.2089 -14.2089 -14.2087 -14.2087 -14.2086
   -14.2084 -14.2082 -14.2081 -14.2080 -14.2078 -14.2077 -14.2072 -14.2071
   -14.2057 -14.2056 -14.2055 -14.2050 -14.2049 -14.2049 -14.2048 -14.2047
   -14.2044 -14.2043 -14.2042 -14.2040 -14.2038 -14.2036 -14.2028 -14.2024
   -14.1902 -14.1889 -14.1884 -14.1879 -14.1877 -14.1876 -14.1875 -14.1873
   -14.1871 -14.1870 -14.1870 -14.1868 -14.1867 -14.1865 -14.1864 -14.1860
   -14.1847 -14.1843 -14.1841 -14.1840 -14.1839 -14.1838 -14.1837 -14.1837
   -14.1836 -14.1835 -14.1834 -14.1834 -14.1834 -14.1834 -14.1832 -14.1832
   -14.1831 -14.1830 -14.1825 -14.1809 -14.1749 -14.1747 -14.1743 -14.1743
   -14.1731 -14.1729 -14.1721 -14.1720 -14.1716 -14.1715 -14.1712 -14.1711
   -14.1710 -14.1709 -14.1708 -14.1708 -14.1707 -14.1707 -14.1707 -14.1706
   -14.1704 -14.1704 -14.1702 -14.1702 -14.1701 -14.1700 -14.1699 -14.1698
   -14.1697 -14.1693 -14.1692 -14.1690 -14.1650 -14.1648 -14.1642 -14.1642
   -14.1639 -14.1638 -14.1638 -14.1637 -14.1637 -14.1636 -14.1636 -14.1634
   -14.1632 -14.1632 -14.1629 -14.1629 -14.1629 -14.1625 -14.1622 -14.1620
   -14.1599 -14.1597 -14.1596 -14.1596 -14.1595 -14.1593 -14.1584 -14.1583
   -14.1579 -14.1577 -14.1577 -14.1574 -14.1573 -14.1573 -14.1572 -14.1571
   -14.1569 -14.1567 -14.1563 -14.1558  -3.7014  -3.5216  -3.1637  -3.1633
    -3.1631  -3.1614  -3.1612  -3.1607  -3.0475  -3.0354  -3.0350  -3.0347
    -3.0309  -3.0306  -3.0302  -2.7817  -2.7337  -2.7334  -2.7332  -2.7280
    -2.7278  -2.7275  -2.6517  -2.6512  -2.6507  -2.6503  -2.6431  -2.6428
    -2.6422  -2.6417  -2.5777  -2.5774  -2.5772  -2.5742  -2.5740  -2.5737
     3.0923   3.4125   3.4125   3.4125   3.5335   3.5336   3.5336   3.5561
     3.5562   3.5564   3.6096   3.6096   3.7034   3.7037   3.7042   3.7044
     3.7140   3.7141   3.7142   3.8309   3.8309   3.8647   3.8648   3.8650
     3.9651   4.0193   4.0193   4.0193   4.0580   4.0582   4.0585   4.1567
     4.1569   4.1577   4.1579   4.2763   4.2763   4.2763   4.6580   4.6581
     4.6582   4.6986   4.6987   4.6988   4.8674   4.8674   5.4221   5.4221
     5.4550   5.4683   5.4684   5.4685   5.5518   5.5519   5.5521   5.6661
     5.6663   5.6666   5.6667   5.9589   5.9590   5.9591   5.9708   5.9709
     5.9710   6.2150   6.2151   6.2152   6.2447   6.2448   6.2449   6.7625
     6.7627   6.7629   6.7846   6.7848   6.7849   6.7994   6.7995   6.7998
     6.7998   6.8295   6.8295   6.8296   6.8526   6.8527   6.8528   6.8768
     6.8769   6.8770   6.9164   6.9165   6.9167   7.0365   7.0365   7.1779
     7.2301   7.2301   7.3208   7.3209   7.3209   7.3556   7.3557   7.3558
     7.5199   7.5199   7.7292   7.7292   8.1376   8.1376   8.1377   8.4577
     8.4577   8.4770   8.4770   8.4770   8.6152   8.6987   8.6987   8.6988
     8.9175   8.9176   8.9176   9.0502   9.0824   9.1626   9.1626   9.1626
     9.4782   9.4783   9.4784   9.4922   9.5638   9.5639   9.5639   9.6529
     9.6530   9.6530   9.7229   9.7229   9.9174   9.9178   9.9178   9.9181
     9.9802   9.9803   9.9804  10.5297  10.5299  10.5301  10.5484  10.5485
    10.5487  10.8322  10.8322  11.0316  11.0316  11.0317  11.1089  11.1089
    11.1281  11.1282  11.1283  11.2754  11.2755  11.2756  11.2766  11.2767
    11.2767  11.4470  11.4471  11.5229  11.5229  11.5230  11.5712  11.6670
    11.6671  11.6673  11.6783  11.6785  11.6787  11.7117  11.7119  11.7121
    11.7122  11.7708  11.7708  11.8724  11.9831  11.9832  11.9832  12.1524
    12.1524  12.2985  12.3362  12.3362  12.3688  12.3850  12.3851  12.3852
    12.6987  12.6988  12.6988  12.7358  12.7360  12.7361  12.7362  13.0006
    13.0011  13.0017  13.0027  13.0034  13.0141  13.0142  13.1312  13.1319

     occupation numbers 
     1.0000   1.0000   1.0000   1.0000   1.0000   1.0000   1.0000   1.0000
     1.0000   1.0000   1.0000   1.0000   1.0000   1.0000   1.0000   1.0000
     1.0000   1.0000   1.0000   1.0000   1.0000   1.0000   1.0000   1.0000
     1.0000   1.0000   1.0000   1.0000   1.0000   1.0000   1.0000   1.0000
     1.0000   1.0000   1.0000   1.0000   1.0000   1.0000   1.0000   1.0000
     1.0000   1.0000   1.0000   1.0000   1.0000   1.0000   1.0000   1.0000
     1.0000   1.0000   1.0000   1.0000   1.0000   1.0000   1.0000   1.0000
     1.0000   1.0000   1.0000   1.0000   1.0000   1.0000   1.0000   1.0000
     1.0000   1.0000   1.0000   1.0000   1.0000   1.0000   1.0000   1.0000
     1.0000   1.0000   1.0000   1.0000   1.0000   1.0000   1.0000   1.0000
     1.0000   1.0000   1.0000   1.0000   1.0000   1.0000   1.0000   1.0000
     1.0000   1.0000   1.0000   1.0000   1.0000   1.0000   1.0000   1.0000
     1.0000   1.0000   1.0000   1.0000   1.0000   1.0000   1.0000   1.0000
     1.0000   1.0000   1.0000   1.0000   1.0000   1.0000   1.0000   1.0000
     1.0000   1.0000   1.0000   1.0000   1.0000   1.0000   1.0000   1.0000
     1.0000   1.0000   1.0000   1.0000   1.0000   1.0000   1.0000   1.0000
     1.0000   1.0000   1.0000   1.0000   1.0000   1.0000   1.0000   1.0000
     1.0000   1.0000   1.0000   1.0000   1.0000   1.0000   1.0000   1.0000
     1.0000   1.0000   1.0000   1.0000   1.0000   1.0000   1.0000   1.0000
     1.0000   1.0000   1.0000   1.0000   1.0000   1.0000   1.0000   1.0000
     1.0000   1.0000   1.0000   1.0000   1.0000   1.0000   1.0000   1.0000
     1.0000   1.0000   1.0000   1.0000   1.0000   1.0000   1.0000   1.0000
     1.0000   1.0000   1.0000   1.0000   1.0000   1.0000   1.0000   1.0000
     1.0000   1.0000   1.0000   1.0000   1.0000   1.0000   1.0000   1.0000
     1.0000   1.0000   1.0000   1.0000   1.0000   1.0000   1.0000   1.0000
     1.0000   1.0000   1.0000   1.0000   1.0000   1.0000   1.0000   1.0000
     1.0000   1.0000   1.0000   1.0000   1.0000   1.0000   1.0000   1.0000
     1.0000   1.0000   1.0000   1.0000   1.0000   1.0000   1.0000   1.0000
     1.0000   1.0000   1.0000   1.0000   1.0000   1.0000   1.0000   1.0000
     1.0000   1.0000   1.0000   1.0000   1.0000   1.0000   1.0000   1.0000
     1.0000   1.0000   1.0000   1.0000   1.0000   1.0000   1.0000   1.0000
     1.0000   1.0000   1.0000   1.0000   1.0000   1.0000   1.0000   1.0000
     1.0000   1.0000   1.0000   1.0000   1.0000   1.0000   1.0000   1.0000
     1.0000   1.0000   1.0000   1.0000   1.0000   1.0000   1.0000   1.0000
     1.0000   1.0000   1.0000   1.0000   1.0000   1.0000   1.0000   1.0000
     1.0000   1.0000   1.0000   1.0000   1.0000   1.0000   1.0000   1.0000
     1.0000   1.0000   1.0000   1.0000   1.0000   1.0000   1.0000   1.0000
     1.0000   1.0000   1.0000   1.0000   1.0000   1.0000   1.0000   1.0000
     1.0000   1.0000   1.0000   1.0000   1.0000   1.0000   1.0000   1.0000
     1.0000   1.0000   1.0000   1.0000   1.0000   1.0000   1.0000   1.0000
     1.0000   1.0000   1.0000   1.0000   1.0000   1.0000   1.0000   1.0000
     1.0000   1.0000   1.0000   1.0000   1.0000   1.0000   1.0000   1.0000
     1.0000   1.0000   1.0000   1.0000   1.0000   1.0000   1.0000   1.0000
     1.0000   1.0000   1.0000   1.0000   1.0000   1.0000   1.0000   1.0000
     1.0000   1.0000   1.0000   1.0000   1.0000   1.0000   1.0000   1.0000
     1.0000   1.0000   1.0000   1.0000   1.0000   1.0000   1.0000   1.0000
     1.0000   1.0000   1.0000   1.0000   1.0000   1.0000   1.0000   1.0000
     1.0000   1.0000   1.0000   1.0000   1.0000   1.0000   1.0000   1.0000
     1.0000   1.0000   1.0000   1.0000   1.0000   1.0000   1.0000   1.0000
     1.0000   1.0000   1.0000   1.0000   1.0000   1.0000   1.0000   1.0000
     1.0000   1.0000   1.0000   1.0000   1.0000   1.0000   1.0000   1.0000
     1.0000   1.0000   1.0000   1.0000   1.0000   1.0000   1.0000   1.0000
     1.0000   1.0000   1.0000   1.0000   1.0000   1.0000   1.0000   1.0000
     1.0000   1.0000   1.0000   1.0000   1.0000   1.0000   1.0000   1.0000
     1.0000   1.0000   1.0000   1.0000   1.0000   1.0000   1.0000   1.0000
     1.0000   1.0000   1.0000   1.0000   1.0000   1.0000   1.0000   1.0000
     1.0000   1.0000   1.0000   1.0000   1.0000   1.0000   1.0000   1.0000
     1.0000   1.0000   1.0000   1.0000   1.0000   1.0000   1.0000   1.0000
     1.0000   1.0000   1.0000   1.0000   1.0000   1.0000   1.0000   1.0000
     1.0000   1.0000   1.0000   1.0000   1.0000   1.0000   1.0000   1.0000
     1.0000   1.0000   1.0000   1.0000   1.0000   1.0000   1.0000   1.0000
     1.0000   1.0000   1.0000   1.0000   1.0000   1.0000   1.0000   1.0000
     1.0000   1.0000   1.0000   1.0000   1.0000   1.0000   1.0000   1.0000
     1.0000   1.0000   1.0000   1.0000   1.0000   1.0000   1.0000   1.0000
     1.0000   1.0000   1.0000   1.0000   1.0000   1.0000   1.0000   1.0000
     1.0000   1.0000   1.0000   1.0000   1.0000   1.0000   1.0000   1.0000
     1.0000   1.0000   1.0000   1.0000   1.0000   1.0000   1.0000   1.0000
     1.0000   1.0000   1.0134   1.0134  -0.0350  -0.0350  -0.0350  -0.0000
    -0.0000  -0.0000  -0.0000  -0.0000  -0.0000  -0.0000  -0.0000  -0.0000
    -0.0000  -0.0000  -0.0000  -0.0000  -0.0000  -0.0000  -0.0000  -0.0000
    -0.0000  -0.0000  -0.0000  -0.0000  -0.0000  -0.0000  -0.0000  -0.0000
    -0.0000  -0.0000  -0.0000  -0.0000  -0.0000  -0.0000  -0.0000  -0.0000
    -0.0000  -0.0000  -0.0000  -0.0000  -0.0000  -0.0000  -0.0000  -0.0000
    -0.0000  -0.0000  -0.0000  -0.0000  -0.0000  -0.0000  -0.0000  -0.0000
    -0.0000  -0.0000  -0.0000  -0.0000  -0.0000  -0.0000  -0.0000  -0.0000
    -0.0000  -0.0000  -0.0000  -0.0000  -0.0000  -0.0000  -0.0000  -0.0000
    -0.0000  -0.0000  -0.0000  -0.0000  -0.0000  -0.0000  -0.0000  -0.0000
    -0.0000  -0.0000  -0.0000  -0.0000  -0.0000  -0.0000  -0.0000  -0.0000
    -0.0000  -0.0000  -0.0000  -0.0000  -0.0000  -0.0000  -0.0000  -0.0000
    -0.0000  -0.0000  -0.0000  -0.0000  -0.0000  -0.0000  -0.0000  -0.0000
    -0.0000  -0.0000  -0.0000  -0.0000  -0.0000  -0.0000  -0.0000  -0.0000

          k = 0.0000 0.0000-0.4746 (554414 PWs)   bands (ev):

   -68.2851 -68.2849 -68.2848 -68.2848 -68.2846 -68.2846 -68.2846 -68.2846
   -68.2846 -68.2846 -68.2846 -68.2846 -68.2846 -68.2845 -68.2844 -68.2844
   -68.2842 -68.2841 -67.7467 -67.7456 -67.7455 -67.7452 -67.7448 -67.7446
   -67.7446 -67.7445 -67.7444 -67.7444 -67.7444 -67.7443 -67.7442 -67.7442
   -67.7441 -67.7441 -67.7440 -67.7440 -67.7440 -67.7439 -67.7438 -67.7438
   -67.7438 -67.7437 -67.7436 -67.7436 -67.7435 -67.7435 -67.7434 -67.7433
   -67.7433 -67.7431 -67.7428 -67.7424 -67.7423 -67.7412 -35.6961 -35.6960
   -35.6959 -35.6959 -35.6957 -35.6957 -35.6957 -35.6957 -35.6956 -35.6956
   -35.6956 -35.6956 -35.6956 -35.6956 -35.6954 -35.6954 -35.6953 -35.6952
   -35.6912 -35.6912 -35.6911 -35.6911 -35.6910 -35.6910 -35.6910 -35.6909
   -35.6908 -35.6908 -35.6908 -35.6908 -35.6908 -35.6907 -35.6907 -35.6907
   -35.6907 -35.6907 -35.6907 -35.6907 -35.6907 -35.6907 -35.6907 -35.6907
   -35.6907 -35.6907 -35.6906 -35.6906 -35.6905 -35.6905 -35.6905 -35.6905
   -35.6904 -35.6903 -35.6903 -35.6902 -35.1792 -35.1789 -35.1784 -35.1783
   -35.1782 -35.1781 -35.1779 -35.1778 -35.1777 -35.1776 -35.1775 -35.1775
   -35.1774 -35.1774 -35.1774 -35.1774 -35.1772 -35.1771 -35.1771 -35.1771
   -35.1771 -35.1770 -35.1770 -35.1770 -35.1770 -35.1770 -35.1770 -35.1769
   -35.1768 -35.1767 -35.1766 -35.1765 -35.1764 -35.1763 -35.1763 -35.1762
   -35.1761 -35.1761 -35.1760 -35.1760 -35.1759 -35.1758 -35.1757 -35.1757
   -35.1756 -35.1755 -35.1751 -35.1750 -35.1749 -35.1746 -35.1746 -35.1743
   -35.1742 -35.1731 -35.1721 -35.1717 -35.1714 -35.1712 -35.1712 -35.1710
   -35.1710 -35.1708 -35.1707 -35.1705 -35.1705 -35.1705 -35.1704 -35.1704
   -35.1703 -35.1703 -35.1701 -35.1700 -35.1699 -35.1698 -35.1697 -35.1696
   -35.1695 -35.1695 -35.1695 -35.1694 -35.1693 -35.1691 -35.1690 -35.1689
   -35.1689 -35.1688 -35.1687 -35.1687 -35.1686 -35.1685 -35.1685 -35.1685
   -35.1684 -35.1684 -35.1683 -35.1682 -35.1682 -35.1681 -35.1680 -35.1680
   -35.1679 -35.1678 -35.1677 -35.1677 -35.1673 -35.1672 -35.1669 -35.1663
   -14.2176 -14.2172 -14.2165 -14.2165 -14.2164 -14.2163 -14.2157 -14.2156
   -14.2154 -14.2154 -14.2153 -14.2151 -14.2140 -14.2138 -14.2136 -14.2136
   -14.2133 -14.2129 -14.2127 -14.2126 -14.2113 -14.2109 -14.2103 -14.2101
   -14.2100 -14.2099 -14.2099 -14.2098 -14.2098 -14.2097 -14.2097 -14.2096
   -14.2095 -14.2095 -14.2095 -14.2094 -14.2093 -14.2093 -14.2091 -14.2090
   -14.2090 -14.2089 -14.2088 -14.2088 -14.2086 -14.2085 -14.2083 -14.2083
   -14.2082 -14.2082 -14.2081 -14.2080 -14.2079 -14.2079 -14.2073 -14.2072
   -14.2057 -14.2056 -14.2055 -14.2054 -14.2052 -14.2051 -14.2045 -14.2045
   -14.2042 -14.2042 -14.2041 -14.2040 -14.2039 -14.2037 -14.2028 -14.2024
   -14.1902 -14.1889 -14.1884 -14.1878 -14.1875 -14.1874 -14.1873 -14.1873
   -14.1872 -14.1871 -14.1871 -14.1870 -14.1870 -14.1867 -14.1863 -14.1861
   -14.1847 -14.1843 -14.1840 -14.1839 -14.1838 -14.1837 -14.1837 -14.1837
   -14.1836 -14.1835 -14.1835 -14.1834 -14.1833 -14.1833 -14.1832 -14.1832
   -14.1831 -14.1830 -14.1825 -14.1809 -14.1749 -14.1747 -14.1743 -14.1743
   -14.1729 -14.1727 -14.1722 -14.1722 -14.1716 -14.1716 -14.1712 -14.1711
   -14.1711 -14.1710 -14.1708 -14.1708 -14.1707 -14.1706 -14.1706 -14.1706
   -14.1706 -14.1705 -14.1705 -14.1704 -14.1703 -14.1700 -14.1696 -14.1695
   -14.1694 -14.1693 -14.1691 -14.1690 -14.1650 -14.1647 -14.1642 -14.1641
   -14.1640 -14.1639 -14.1639 -14.1638 -14.1638 -14.1638 -14.1637 -14.1636
   -14.1632 -14.1632 -14.1628 -14.1628 -14.1627 -14.1624 -14.1622 -14.1619
   -14.1599 -14.1596 -14.1595 -14.1594 -14.1591 -14.1591 -14.1589 -14.1588
   -14.1578 -14.1575 -14.1575 -14.1574 -14.1574 -14.1574 -14.1571 -14.1570
   -14.1570 -14.1569 -14.1563 -14.1559  -3.6275  -3.6268  -3.1114  -3.1106
    -3.1104  -3.1102  -3.1100  -3.1097  -3.1070  -3.1065  -3.1065  -3.1065
    -3.1064  -3.1055  -2.9001  -2.8994  -2.6489  -2.6476  -2.6470  -2.6469
    -2.6466  -2.6465  -2.6462  -2.6459  -2.6456  -2.6451  -2.6451  -2.6450
    -2.6447  -2.6441  -2.6400  -2.6398  -2.6396  -2.6395  -2.6392  -2.6384
     3.4142   3.4145   3.4145   3.4146   3.4147   3.4149   3.4362   3.4370
     3.5900   3.5902   3.5904   3.5908   3.5910   3.5912   3.7041   3.7043
     3.7047   3.7049   3.8905   3.8908   3.8914   3.8916   3.8918   3.8920
     3.8926   3.8929   4.0438   4.0443   4.0444   4.0446   4.0447   4.0452
     4.2465   4.2470   4.2471   4.2472   4.2473   4.2478   4.9153   4.9156
     4.9156   4.9157   4.9157   4.9159   4.9948   4.9951   4.9952   4.9954
     4.9956   4.9958   5.1438   5.1442   5.1444   5.1448   6.0586   6.0587
     6.0588   6.0590   6.0591   6.0592   6.0812   6.0818   6.0819   6.0820
     6.0822   6.0827   6.2181   6.2185   6.2186   6.2189   6.2190   6.2193
     6.2194   6.2198   6.3029   6.3032   7.0145   7.0149   7.0150   7.0152
     7.0154   7.0157   7.0199   7.0201   7.0203   7.0204   7.0206   7.0209
     7.0899   7.0905   7.0907   7.0908   7.0910   7.0915   7.1121   7.1124
     7.1132   7.1135   7.1417   7.1418   7.1419   7.1420   7.1421   7.1422
     7.6449   7.6452   7.6461   7.6464   8.1425   8.1426   8.1428   8.1428
     8.1430   8.1431   8.8698   8.8702   8.8704   8.8704   8.8706   8.8709
     8.8774   8.8789   8.9942   8.9942   8.9947   8.9947   9.1916   9.1917
     9.1920   9.1923   9.1926   9.1927   9.3823   9.3834   9.4869   9.4871
     9.4874   9.4875   9.4877   9.4879  10.1815  10.1818  10.1819  10.1820
    10.1821  10.1824  10.7556  10.7557  10.7559  10.7562  10.7563  10.7566
    10.7568  10.7569  10.9134  10.9137  10.9139  10.9142  10.9144  10.9147
    10.9413  10.9413  10.9415  10.9416  11.4781  11.4783  11.4784  11.4786
    11.4787  11.4789  11.6158  11.6160  11.6161  11.6161  11.6162  11.6164
    11.6871  11.6873  11.7679  11.7682  11.7684  11.7684  11.7686  11.7689
    11.8720  11.8725  11.8726  11.8726  11.8727  11.8732  11.9705  11.9706
    11.9708  11.9708  12.1324  12.1326  12.1330  12.1332  12.3411  12.3414
    12.6292  12.6294  12.6296  12.6297  12.6299  12.6301  12.8323  12.8325
    12.8327  12.8333  12.8783  12.8797  12.8799  12.8800  12.8801  12.8802

     occupation numbers 
     1.0000   1.0000   1.0000   1.0000   1.0000   1.0000   1.0000   1.0000
     1.0000   1.0000   1.0000   1.0000   1.0000   1.0000   1.0000   1.0000
     1.0000   1.0000   1.0000   1.0000   1.0000   1.0000   1.0000   1.0000
     1.0000   1.0000   1.0000   1.0000   1.0000   1.0000   1.0000   1.0000
     1.0000   1.0000   1.0000   1.0000   1.0000   1.0000   1.0000   1.0000
     1.0000   1.0000   1.0000   1.0000   1.0000   1.0000   1.0000   1.0000
     1.0000   1.0000   1.0000   1.0000   1.0000   1.0000   1.0000   1.0000
     1.0000   1.0000   1.0000   1.0000   1.0000   1.0000   1.0000   1.0000
     1.0000   1.0000   1.0000   1.0000   1.0000   1.0000   1.0000   1.0000
     1.0000   1.0000   1.0000   1.0000   1.0000   1.0000   1.0000   1.0000
     1.0000   1.0000   1.0000   1.0000   1.0000   1.0000   1.0000   1.0000
     1.0000   1.0000   1.0000   1.0000   1.0000   1.0000   1.0000   1.0000
     1.0000   1.0000   1.0000   1.0000   1.0000   1.0000   1.0000   1.0000
     1.0000   1.0000   1.0000   1.0000   1.0000   1.0000   1.0000   1.0000
     1.0000   1.0000   1.0000   1.0000   1.0000   1.0000   1.0000   1.0000
     1.0000   1.0000   1.0000   1.0000   1.0000   1.0000   1.0000   1.0000
     1.0000   1.0000   1.0000   1.0000   1.0000   1.0000   1.0000   1.0000
     1.0000   1.0000   1.0000   1.0000   1.0000   1.0000   1.0000   1.0000
     1.0000   1.0000   1.0000   1.0000   1.0000   1.0000   1.0000   1.0000
     1.0000   1.0000   1.0000   1.0000   1.0000   1.0000   1.0000   1.0000
     1.0000   1.0000   1.0000   1.0000   1.0000   1.0000   1.0000   1.0000
     1.0000   1.0000   1.0000   1.0000   1.0000   1.0000   1.0000   1.0000
     1.0000   1.0000   1.0000   1.0000   1.0000   1.0000   1.0000   1.0000
     1.0000   1.0000   1.0000   1.0000   1.0000   1.0000   1.0000   1.0000
     1.0000   1.0000   1.0000   1.0000   1.0000   1.0000   1.0000   1.0000
     1.0000   1.0000   1.0000   1.0000   1.0000   1.0000   1.0000   1.0000
     1.0000   1.0000   1.0000   1.0000   1.0000   1.0000   1.0000   1.0000
     1.0000   1.0000   1.0000   1.0000   1.0000   1.0000   1.0000   1.0000
     1.0000   1.0000   1.0000   1.0000   1.0000   1.0000   1.0000   1.0000
     1.0000   1.0000   1.0000   1.0000   1.0000   1.0000   1.0000   1.0000
     1.0000   1.0000   1.0000   1.0000   1.0000   1.0000   1.0000   1.0000
     1.0000   1.0000   1.0000   1.0000   1.0000   1.0000   1.0000   1.0000
     1.0000   1.0000   1.0000   1.0000   1.0000   1.0000   1.0000   1.0000
     1.0000   1.0000   1.0000   1.0000   1.0000   1.0000   1.0000   1.0000
     1.0000   1.0000   1.0000   1.0000   1.0000   1.0000   1.0000   1.0000
     1.0000   1.0000   1.0000   1.0000   1.0000   1.0000   1.0000   1.0000
     1.0000   1.0000   1.0000   1.0000   1.0000   1.0000   1.0000   1.0000
     1.0000   1.0000   1.0000   1.0000   1.0000   1.0000   1.0000   1.0000
     1.0000   1.0000   1.0000   1.0000   1.0000   1.0000   1.0000   1.0000
     1.0000   1.0000   1.0000   1.0000   1.0000   1.0000   1.0000   1.0000
     1.0000   1.0000   1.0000   1.0000   1.0000   1.0000   1.0000   1.0000
     1.0000   1.0000   1.0000   1.0000   1.0000   1.0000   1.0000   1.0000
     1.0000   1.0000   1.0000   1.0000   1.0000   1.0000   1.0000   1.0000
     1.0000   1.0000   1.0000   1.0000   1.0000   1.0000   1.0000   1.0000
     1.0000   1.0000   1.0000   1.0000   1.0000   1.0000   1.0000   1.0000
     1.0000   1.0000   1.0000   1.0000   1.0000   1.0000   1.0000   1.0000
     1.0000   1.0000   1.0000   1.0000   1.0000   1.0000   1.0000   1.0000
     1.0000   1.0000   1.0000   1.0000   1.0000   1.0000   1.0000   1.0000
     1.0000   1.0000   1.0000   1.0000   1.0000   1.0000   1.0000   1.0000
     1.0000   1.0000   1.0000   1.0000   1.0000   1.0000   1.0000   1.0000
     1.0000   1.0000   1.0000   1.0000   1.0000   1.0000   1.0000   1.0000
     1.0000   1.0000   1.0000   1.0000   1.0000   1.0000   1.0000   1.0000
     1.0000   1.0000   1.0000   1.0000   1.0000   1.0000   1.0000   1.0000
     1.0000   1.0000   1.0000   1.0000   1.0000   1.0000   1.0000   1.0000
     1.0000   1.0000   1.0000   1.0000   1.0000   1.0000   1.0000   1.0000
     1.0000   1.0000   1.0000   1.0000   1.0000   1.0000   1.0000   1.0000
     1.0000   1.0000   1.0000   1.0000   1.0000   1.0000   1.0000   1.0000
     1.0000   1.0000   1.0000   1.0000   1.0000   1.0000   1.0000   1.0000
     1.0000   1.0000   1.0000   1.0000   1.0000   1.0000   1.0000   1.0000
     1.0000   1.0000   1.0000   1.0000   1.0000   1.0000   1.0000   1.0000
     1.0000   1.0000   1.0000   1.0000   1.0000   1.0000   1.0000   1.0000
     1.0000   1.0000   1.0000   1.0000   1.0000   1.0000   1.0000   1.0000
     1.0000   1.0000   1.0000   1.0000   1.0000   1.0000   1.0000   1.0000
     1.0000   1.0000   1.0000   1.0000   1.0000   1.0000   1.0000   1.0000
     1.0000   1.0000   1.0000   1.0000   1.0000   1.0000   1.0000   1.0000
     1.0000   1.0000   1.0000   1.0000   1.0000   1.0000   1.0000   1.0000
     1.0000   1.0000   1.0000   1.0000   1.0000   1.0000   1.0000   1.0000
     1.0015   1.0015   1.0015   1.0015  -0.0354  -0.0354  -0.0354  -0.0354
    -0.0354  -0.0354  -0.0000  -0.0000  -0.0000  -0.0000  -0.0000  -0.0000
    -0.0000  -0.0000  -0.0000  -0.0000  -0.0000  -0.0000  -0.0000  -0.0000
    -0.0000  -0.0000  -0.0000  -0.0000  -0.0000  -0.0000  -0.0000  -0.0000
    -0.0000  -0.0000  -0.0000  -0.0000  -0.0000  -0.0000  -0.0000  -0.0000
    -0.0000  -0.0000  -0.0000  -0.0000  -0.0000  -0.0000  -0.0000  -0.0000
    -0.0000  -0.0000  -0.0000  -0.0000  -0.0000  -0.0000  -0.0000  -0.0000
    -0.0000  -0.0000  -0.0000  -0.0000  -0.0000  -0.0000  -0.0000  -0.0000
    -0.0000  -0.0000  -0.0000  -0.0000  -0.0000  -0.0000  -0.0000  -0.0000
    -0.0000  -0.0000  -0.0000  -0.0000  -0.0000  -0.0000  -0.0000  -0.0000
    -0.0000  -0.0000  -0.0000  -0.0000  -0.0000  -0.0000  -0.0000  -0.0000
    -0.0000  -0.0000  -0.0000  -0.0000  -0.0000  -0.0000  -0.0000  -0.0000
    -0.0000  -0.0000  -0.0000  -0.0000  -0.0000  -0.0000  -0.0000  -0.0000
    -0.0000  -0.0000  -0.0000  -0.0000  -0.0000  -0.0000  -0.0000  -0.0000

          k = 0.0000 0.2887 0.0000 (554671 PWs)   bands (ev):

   -68.2851 -68.2849 -68.2848 -68.2848 -68.2846 -68.2846 -68.2846 -68.2846
   -68.2846 -68.2846 -68.2846 -68.2846 -68.2846 -68.2845 -68.2844 -68.2844
   -68.2842 -68.2841 -67.7467 -67.7456 -67.7455 -67.7452 -67.7448 -67.7446
   -67.7446 -67.7445 -67.7444 -67.7444 -67.7443 -67.7443 -67.7442 -67.7441
   -67.7441 -67.7441 -67.7441 -67.7440 -67.7439 -67.7439 -67.7438 -67.7438
   -67.7438 -67.7437 -67.7436 -67.7436 -67.7435 -67.7435 -67.7434 -67.7433
   -67.7433 -67.7431 -67.7428 -67.7424 -67.7423 -67.7412 -35.6961 -35.6960
   -35.6959 -35.6959 -35.6957 -35.6957 -35.6957 -35.6957 -35.6956 -35.6956
   -35.6956 -35.6956 -35.6956 -35.6956 -35.6954 -35.6954 -35.6953 -35.6952
   -35.6912 -35.6912 -35.6911 -35.6911 -35.6910 -35.6910 -35.6910 -35.6909
   -35.6908 -35.6908 -35.6908 -35.6908 -35.6908 -35.6908 -35.6908 -35.6907
   -35.6907 -35.6907 -35.6907 -35.6907 -35.6907 -35.6907 -35.6907 -35.6907
   -35.6907 -35.6907 -35.6906 -35.6906 -35.6905 -35.6905 -35.6905 -35.6905
   -35.6904 -35.6903 -35.6903 -35.6902 -35.1792 -35.1789 -35.1784 -35.1783
   -35.1782 -35.1781 -35.1779 -35.1778 -35.1777 -35.1776 -35.1776 -35.1774
   -35.1774 -35.1774 -35.1774 -35.1774 -35.1773 -35.1772 -35.1771 -35.1771
   -35.1771 -35.1771 -35.1771 -35.1770 -35.1770 -35.1769 -35.1768 -35.1768
   -35.1768 -35.1768 -35.1766 -35.1765 -35.1764 -35.1764 -35.1763 -35.1763
   -35.1762 -35.1761 -35.1760 -35.1759 -35.1758 -35.1758 -35.1758 -35.1757
   -35.1755 -35.1753 -35.1752 -35.1751 -35.1749 -35.1747 -35.1745 -35.1744
   -35.1742 -35.1733 -35.1720 -35.1716 -35.1714 -35.1712 -35.1712 -35.1710
   -35.1709 -35.1707 -35.1706 -35.1706 -35.1705 -35.1704 -35.1704 -35.1704
   -35.1703 -35.1702 -35.1701 -35.1701 -35.1699 -35.1698 -35.1698 -35.1696
   -35.1696 -35.1695 -35.1694 -35.1693 -35.1692 -35.1691 -35.1691 -35.1690
   -35.1689 -35.1688 -35.1687 -35.1687 -35.1686 -35.1686 -35.1685 -35.1684
   -35.1684 -35.1683 -35.1683 -35.1682 -35.1682 -35.1681 -35.1681 -35.1680
   -35.1680 -35.1678 -35.1677 -35.1676 -35.1673 -35.1672 -35.1669 -35.1663
   -14.2176 -14.2173 -14.2167 -14.2163 -14.2160 -14.2158 -14.2155 -14.2154
   -14.2152 -14.2151 -14.2150 -14.2149 -14.2148 -14.2146 -14.2138 -14.2136
   -14.2135 -14.2129 -14.2125 -14.2118 -14.2113 -14.2110 -14.2106 -14.2104
   -14.2103 -14.2102 -14.2102 -14.2101 -14.2100 -14.2100 -14.2099 -14.2098
   -14.2098 -14.2097 -14.2096 -14.2092 -14.2092 -14.2091 -14.2091 -14.2089
   -14.2088 -14.2087 -14.2087 -14.2086 -14.2084 -14.2084 -14.2083 -14.2082
   -14.2081 -14.2080 -14.2078 -14.2077 -14.2076 -14.2073 -14.2072 -14.2068
   -14.2061 -14.2059 -14.2057 -14.2055 -14.2053 -14.2052 -14.2051 -14.2048
   -14.2047 -14.2045 -14.2042 -14.2038 -14.2036 -14.2033 -14.2027 -14.2023
   -14.1901 -14.1887 -14.1884 -14.1879 -14.1877 -14.1876 -14.1874 -14.1872
   -14.1871 -14.1868 -14.1867 -14.1866 -14.1864 -14.1863 -14.1861 -14.1857
   -14.1853 -14.1852 -14.1848 -14.1846 -14.1845 -14.1844 -14.1841 -14.1841
   -14.1838 -14.1838 -14.1834 -14.1833 -14.1832 -14.1831 -14.1830 -14.1828
   -14.1827 -14.1825 -14.1823 -14.1809 -14.1747 -14.1744 -14.1741 -14.1741
   -14.1732 -14.1728 -14.1724 -14.1722 -14.1720 -14.1720 -14.1718 -14.1717
   -14.1715 -14.1714 -14.1712 -14.1711 -14.1711 -14.1709 -14.1708 -14.1706
   -14.1704 -14.1703 -14.1702 -14.1701 -14.1699 -14.1695 -14.1692 -14.1689
   -14.1686 -14.1684 -14.1682 -14.1677 -14.1658 -14.1656 -14.1651 -14.1649
   -14.1647 -14.1644 -14.1640 -14.1639 -14.1638 -14.1637 -14.1636 -14.1635
   -14.1634 -14.1629 -14.1626 -14.1625 -14.1624 -14.1621 -14.1618 -14.1615
   -14.1601 -14.1598 -14.1595 -14.1593 -14.1592 -14.1591 -14.1583 -14.1583
   -14.1581 -14.1579 -14.1578 -14.1576 -14.1576 -14.1574 -14.1573 -14.1570
   -14.1569 -14.1564 -14.1560 -14.1558  -3.6873  -3.4167  -3.3938  -3.2661
    -3.2655  -3.1593  -3.1041  -3.0554  -3.0549  -3.0523  -3.0517  -2.9813
    -2.9055  -2.8859  -2.8854  -2.8317  -2.8293  -2.8290  -2.7668  -2.7664
    -2.7255  -2.7252  -2.7174  -2.7005  -2.6917  -2.6913  -2.6354  -2.6351
    -2.6000  -2.5790  -2.5786  -2.5652  -2.5649  -2.5470  -2.5401  -2.5397
     3.0347   3.1114   3.3158   3.3159   3.3561   3.4158   3.4159   3.5129
     3.5180   3.5325   3.5326   3.5767   3.5769   3.5984   3.5988   3.6637
     3.6639   3.7403   3.7408   3.7598   3.7600   3.9969   4.0154   4.0156
     4.1874   4.1877   4.2179   4.2184   4.2549   4.2553   4.2647   4.2924
     4.2968   4.2969   4.4119   4.4456   4.4457   4.5008   4.5269   4.5637
     4.5637   4.7611   4.8419   4.8422   4.9664   4.9665   4.9897   4.9902
     5.3061   5.6051   5.6053   5.6400   5.6403   5.7634   5.7748   5.7752
     5.7798   5.7800   5.8694   5.8696   5.9376   5.9379   6.0419   6.0945
     6.0947   6.1030   6.1478   6.1712   6.1715   6.1890   6.1901   6.2427
     6.4061   6.4413   6.4415   6.4459   6.4461   6.4692   6.4775   6.4777
     6.5511   6.6006   6.6241   6.6242   6.6717   6.6722   6.8465   6.9038
     6.9083   6.9147   6.9742   6.9745   7.0204   7.0206   7.0325   7.0452
     7.0456   7.0624   7.0626   7.1983   7.1984   7.2002   7.3072   7.3429
     7.3855   7.5918   7.7817   8.0322   8.3627   8.3936   8.4270   8.4270
     8.7360   8.7362   8.8036   8.8036   8.8590   8.8713   9.0136   9.0138
     9.0379   9.1291   9.1292   9.2095   9.3632   9.4332   9.4334   9.5559
     9.5562   9.5774   9.5774   9.6631   9.7038   9.7538   9.7919   9.8648
     9.9006   9.9234   9.9235   9.9613   9.9614  10.2041  10.2042  10.2430
    10.2432  10.2955  10.2995  10.2995  10.3130  10.3131  10.3968  10.4350
    10.6931  10.6932  10.7170  10.7173  10.7569  10.7704  10.8279  10.8280
    10.8998  10.9261  10.9262  10.9953  11.1226  11.1228  11.1554  11.1559
    11.2235  11.2237  11.2611  11.2640  11.2989  11.2995  11.3584  11.3586
    11.4219  11.7468  11.7521  11.7842  11.7843  11.9057  11.9983  11.9984
    12.0058  12.0059  12.0324  12.0327  12.0332  12.0335  12.0877  12.0926
    12.1100  12.1173  12.1175  12.1201  12.1963  12.1967  12.2064  12.2064
    12.3153  12.3985  12.3987  12.5039  12.5142  12.5144  12.5385  12.5693
    12.5732  12.5933  12.6839  12.6951  12.6951  12.7017  12.7377  12.7379

     occupation numbers 
     1.0000   1.0000   1.0000   1.0000   1.0000   1.0000   1.0000   1.0000
     1.0000   1.0000   1.0000   1.0000   1.0000   1.0000   1.0000   1.0000
     1.0000   1.0000   1.0000   1.0000   1.0000   1.0000   1.0000   1.0000
     1.0000   1.0000   1.0000   1.0000   1.0000   1.0000   1.0000   1.0000
     1.0000   1.0000   1.0000   1.0000   1.0000   1.0000   1.0000   1.0000
     1.0000   1.0000   1.0000   1.0000   1.0000   1.0000   1.0000   1.0000
     1.0000   1.0000   1.0000   1.0000   1.0000   1.0000   1.0000   1.0000
     1.0000   1.0000   1.0000   1.0000   1.0000   1.0000   1.0000   1.0000
     1.0000   1.0000   1.0000   1.0000   1.0000   1.0000   1.0000   1.0000
     1.0000   1.0000   1.0000   1.0000   1.0000   1.0000   1.0000   1.0000
     1.0000   1.0000   1.0000   1.0000   1.0000   1.0000   1.0000   1.0000
     1.0000   1.0000   1.0000   1.0000   1.0000   1.0000   1.0000   1.0000
     1.0000   1.0000   1.0000   1.0000   1.0000   1.0000   1.0000   1.0000
     1.0000   1.0000   1.0000   1.0000   1.0000   1.0000   1.0000   1.0000
     1.0000   1.0000   1.0000   1.0000   1.0000   1.0000   1.0000   1.0000
     1.0000   1.0000   1.0000   1.0000   1.0000   1.0000   1.0000   1.0000
     1.0000   1.0000   1.0000   1.0000   1.0000   1.0000   1.0000   1.0000
     1.0000   1.0000   1.0000   1.0000   1.0000   1.0000   1.0000   1.0000
     1.0000   1.0000   1.0000   1.0000   1.0000   1.0000   1.0000   1.0000
     1.0000   1.0000   1.0000   1.0000   1.0000   1.0000   1.0000   1.0000
     1.0000   1.0000   1.0000   1.0000   1.0000   1.0000   1.0000   1.0000
     1.0000   1.0000   1.0000   1.0000   1.0000   1.0000   1.0000   1.0000
     1.0000   1.0000   1.0000   1.0000   1.0000   1.0000   1.0000   1.0000
     1.0000   1.0000   1.0000   1.0000   1.0000   1.0000   1.0000   1.0000
     1.0000   1.0000   1.0000   1.0000   1.0000   1.0000   1.0000   1.0000
     1.0000   1.0000   1.0000   1.0000   1.0000   1.0000   1.0000   1.0000
     1.0000   1.0000   1.0000   1.0000   1.0000   1.0000   1.0000   1.0000
     1.0000   1.0000   1.0000   1.0000   1.0000   1.0000   1.0000   1.0000
     1.0000   1.0000   1.0000   1.0000   1.0000   1.0000   1.0000   1.0000
     1.0000   1.0000   1.0000   1.0000   1.0000   1.0000   1.0000   1.0000
     1.0000   1.0000   1.0000   1.0000   1.0000   1.0000   1.0000   1.0000
     1.0000   1.0000   1.0000   1.0000   1.0000   1.0000   1.0000   1.0000
     1.0000   1.0000   1.0000   1.0000   1.0000   1.0000   1.0000   1.0000
     1.0000   1.0000   1.0000   1.0000   1.0000   1.0000   1.0000   1.0000
     1.0000   1.0000   1.0000   1.0000   1.0000   1.0000   1.0000   1.0000
     1.0000   1.0000   1.0000   1.0000   1.0000   1.0000   1.0000   1.0000
     1.0000   1.0000   1.0000   1.0000   1.0000   1.0000   1.0000   1.0000
     1.0000   1.0000   1.0000   1.0000   1.0000   1.0000   1.0000   1.0000
     1.0000   1.0000   1.0000   1.0000   1.0000   1.0000   1.0000   1.0000
     1.0000   1.0000   1.0000   1.0000   1.0000   1.0000   1.0000   1.0000
     1.0000   1.0000   1.0000   1.0000   1.0000   1.0000   1.0000   1.0000
     1.0000   1.0000   1.0000   1.0000   1.0000   1.0000   1.0000   1.0000
     1.0000   1.0000   1.0000   1.0000   1.0000   1.0000   1.0000   1.0000
     1.0000   1.0000   1.0000   1.0000   1.0000   1.0000   1.0000   1.0000
     1.0000   1.0000   1.0000   1.0000   1.0000   1.0000   1.0000   1.0000
     1.0000   1.0000   1.0000   1.0000   1.0000   1.0000   1.0000   1.0000
     1.0000   1.0000   1.0000   1.0000   1.0000   1.0000   1.0000   1.0000
     1.0000   1.0000   1.0000   1.0000   1.0000   1.0000   1.0000   1.0000
     1.0000   1.0000   1.0000   1.0000   1.0000   1.0000   1.0000   1.0000
     1.0000   1.0000   1.0000   1.0000   1.0000   1.0000   1.0000   1.0000
     1.0000   1.0000   1.0000   1.0000   1.0000   1.0000   1.0000   1.0000
     1.0000   1.0000   1.0000   1.0000   1.0000   1.0000   1.0000   1.0000
     1.0000   1.0000   1.0000   1.0000   1.0000   1.0000   1.0000   1.0000
     1.0000   1.0000   1.0000   1.0000   1.0000   1.0000   1.0000   1.0000
     1.0000   1.0000   1.0000   1.0000   1.0000   1.0000   1.0000   1.0000
     1.0000   1.0000   1.0000   1.0000   1.0000   1.0000   1.0000   1.0000
     1.0000   1.0000   1.0000   1.0000   1.0000   1.0000   1.0000   1.0000
     1.0000   1.0000   1.0000   1.0000   1.0000   1.0000   1.0000   1.0000
     1.0000   1.0000   1.0000   1.0000   1.0000   1.0000   1.0000   1.0000
     1.0000   1.0000   1.0000   1.0000   1.0000   1.0000   1.0000   1.0000
     1.0000   1.0000   1.0000   1.0000   1.0000   1.0000   1.0000   1.0000
     1.0000   1.0000   1.0000   1.0000   1.0000   1.0000   1.0000   1.0000
     1.0000   1.0000   1.0000   1.0000   1.0000   1.0000   1.0000   1.0000
     1.0000   1.0000   1.0000   1.0000   1.0000   1.0000   1.0000   1.0000
     1.0000   1.0000   1.0000   1.0000   1.0000   1.0000   1.0000   1.0000
     1.0000   1.0000   1.0000   1.0000   1.0000   1.0000   1.0000   1.0000
     1.0000   1.0000   1.0000   1.0000   1.0000   1.0000   1.0000   1.0000
     1.0000   1.0002   1.0301   0.1904  -0.0002  -0.0001  -0.0000  -0.0000
    -0.0000  -0.0000  -0.0000  -0.0000  -0.0000  -0.0000  -0.0000  -0.0000
    -0.0000  -0.0000  -0.0000  -0.0000  -0.0000  -0.0000  -0.0000  -0.0000
    -0.0000  -0.0000  -0.0000  -0.0000  -0.0000  -0.0000  -0.0000  -0.0000
    -0.0000  -0.0000  -0.0000  -0.0000  -0.0000  -0.0000  -0.0000  -0.0000
    -0.0000  -0.0000  -0.0000  -0.0000  -0.0000  -0.0000  -0.0000  -0.0000
    -0.0000  -0.0000  -0.0000  -0.0000  -0.0000  -0.0000  -0.0000  -0.0000
    -0.0000  -0.0000  -0.0000  -0.0000  -0.0000  -0.0000  -0.0000  -0.0000
    -0.0000  -0.0000  -0.0000  -0.0000  -0.0000  -0.0000  -0.0000  -0.0000
    -0.0000  -0.0000  -0.0000  -0.0000  -0.0000  -0.0000  -0.0000  -0.0000
    -0.0000  -0.0000  -0.0000  -0.0000  -0.0000  -0.0000  -0.0000  -0.0000
    -0.0000  -0.0000  -0.0000  -0.0000  -0.0000  -0.0000  -0.0000  -0.0000
    -0.0000  -0.0000  -0.0000  -0.0000  -0.0000  -0.0000  -0.0000  -0.0000
    -0.0000  -0.0000  -0.0000  -0.0000  -0.0000  -0.0000  -0.0000  -0.0000

          k = 0.0000 0.2887 0.2373 (554660 PWs)   bands (ev):

   -68.2851 -68.2849 -68.2848 -68.2848 -68.2846 -68.2846 -68.2846 -68.2846
   -68.2846 -68.2846 -68.2846 -68.2846 -68.2846 -68.2845 -68.2844 -68.2844
   -68.2842 -68.2841 -67.7467 -67.7456 -67.7455 -67.7452 -67.7448 -67.7446
   -67.7446 -67.7445 -67.7444 -67.7444 -67.7443 -67.7443 -67.7442 -67.7441
   -67.7441 -67.7441 -67.7441 -67.7440 -67.7439 -67.7439 -67.7438 -67.7438
   -67.7438 -67.7437 -67.7436 -67.7436 -67.7435 -67.7435 -67.7434 -67.7433
   -67.7433 -67.7431 -67.7428 -67.7424 -67.7423 -67.7412 -35.6961 -35.6960
   -35.6959 -35.6959 -35.6957 -35.6957 -35.6957 -35.6957 -35.6956 -35.6956
   -35.6956 -35.6956 -35.6956 -35.6956 -35.6954 -35.6954 -35.6953 -35.6952
   -35.6912 -35.6912 -35.6911 -35.6911 -35.6910 -35.6910 -35.6910 -35.6909
   -35.6908 -35.6908 -35.6908 -35.6908 -35.6908 -35.6908 -35.6908 -35.6907
   -35.6907 -35.6907 -35.6907 -35.6907 -35.6907 -35.6907 -35.6907 -35.6907
   -35.6907 -35.6907 -35.6906 -35.6906 -35.6905 -35.6905 -35.6905 -35.6905
   -35.6904 -35.6903 -35.6903 -35.6902 -35.1792 -35.1789 -35.1784 -35.1783
   -35.1782 -35.1781 -35.1779 -35.1778 -35.1777 -35.1776 -35.1776 -35.1774
   -35.1774 -35.1774 -35.1774 -35.1774 -35.1773 -35.1772 -35.1771 -35.1771
   -35.1771 -35.1771 -35.1771 -35.1770 -35.1770 -35.1769 -35.1768 -35.1768
   -35.1768 -35.1768 -35.1766 -35.1765 -35.1764 -35.1764 -35.1763 -35.1763
   -35.1762 -35.1761 -35.1760 -35.1759 -35.1758 -35.1758 -35.1758 -35.1757
   -35.1755 -35.1753 -35.1752 -35.1751 -35.1749 -35.1747 -35.1745 -35.1744
   -35.1742 -35.1733 -35.1720 -35.1716 -35.1714 -35.1712 -35.1712 -35.1710
   -35.1709 -35.1707 -35.1706 -35.1706 -35.1705 -35.1704 -35.1704 -35.1704
   -35.1703 -35.1702 -35.1701 -35.1701 -35.1699 -35.1698 -35.1698 -35.1696
   -35.1696 -35.1695 -35.1694 -35.1693 -35.1692 -35.1691 -35.1691 -35.1690
   -35.1689 -35.1688 -35.1687 -35.1687 -35.1686 -35.1686 -35.1685 -35.1684
   -35.1684 -35.1683 -35.1683 -35.1682 -35.1682 -35.1681 -35.1681 -35.1680
   -35.1680 -35.1678 -35.1677 -35.1676 -35.1673 -35.1672 -35.1669 -35.1663
   -14.2176 -14.2173 -14.2166 -14.2162 -14.2160 -14.2160 -14.2157 -14.2156
   -14.2154 -14.2150 -14.2149 -14.2147 -14.2147 -14.2143 -14.2138 -14.2137
   -14.2135 -14.2129 -14.2128 -14.2118 -14.2113 -14.2111 -14.2106 -14.2104
   -14.2103 -14.2103 -14.2102 -14.2101 -14.2101 -14.2100 -14.2099 -14.2098
   -14.2097 -14.2095 -14.2095 -14.2093 -14.2091 -14.2090 -14.2089 -14.2089
   -14.2088 -14.2087 -14.2087 -14.2086 -14.2085 -14.2085 -14.2083 -14.2081
   -14.2081 -14.2080 -14.2079 -14.2077 -14.2075 -14.2074 -14.2072 -14.2068
   -14.2063 -14.2059 -14.2058 -14.2054 -14.2053 -14.2052 -14.2050 -14.2047
   -14.2045 -14.2044 -14.2040 -14.2039 -14.2036 -14.2034 -14.2028 -14.2023
   -14.1901 -14.1887 -14.1884 -14.1878 -14.1876 -14.1875 -14.1873 -14.1873
   -14.1870 -14.1869 -14.1868 -14.1867 -14.1865 -14.1863 -14.1862 -14.1858
   -14.1852 -14.1851 -14.1847 -14.1846 -14.1846 -14.1844 -14.1841 -14.1841
   -14.1838 -14.1837 -14.1833 -14.1833 -14.1831 -14.1831 -14.1830 -14.1828
   -14.1827 -14.1825 -14.1823 -14.1808 -14.1747 -14.1745 -14.1741 -14.1740
   -14.1731 -14.1728 -14.1723 -14.1722 -14.1721 -14.1720 -14.1718 -14.1717
   -14.1716 -14.1714 -14.1714 -14.1711 -14.1710 -14.1708 -14.1707 -14.1706
   -14.1705 -14.1705 -14.1704 -14.1702 -14.1699 -14.1695 -14.1693 -14.1691
   -14.1686 -14.1681 -14.1681 -14.1677 -14.1657 -14.1654 -14.1651 -14.1651
   -14.1650 -14.1642 -14.1641 -14.1640 -14.1639 -14.1637 -14.1635 -14.1634
   -14.1633 -14.1629 -14.1628 -14.1626 -14.1622 -14.1620 -14.1618 -14.1614
   -14.1601 -14.1598 -14.1595 -14.1591 -14.1591 -14.1590 -14.1583 -14.1582
   -14.1581 -14.1580 -14.1579 -14.1577 -14.1575 -14.1573 -14.1572 -14.1571
   -14.1570 -14.1566 -14.1561 -14.1558  -3.6617  -3.4845  -3.3709  -3.2461
    -3.2456  -3.2189  -3.1043  -3.1037  -3.0378  -3.0373  -3.0201  -2.9680
    -2.9302  -2.9297  -2.8661  -2.8353  -2.7705  -2.7702  -2.7608  -2.7593
    -2.7589  -2.7090  -2.7086  -2.6784  -2.6780  -2.6660  -2.6339  -2.6210
    -2.6206  -2.5922  -2.5918  -2.5837  -2.5833  -2.5608  -2.5603  -2.5599
     3.1492   3.1557   3.2538   3.2685   3.2686   3.4533   3.4534   3.5204
     3.5204   3.5437   3.5440   3.5744   3.5912   3.6304   3.6307   3.6504
     3.6509   3.7847   3.7848   3.7886   3.8083   3.8084   3.9837   4.0375
     4.0376   4.0932   4.0936   4.1150   4.1156   4.1356   4.2627   4.2629
     4.3851   4.3853   4.4317   4.4318   4.5318   4.5380   4.5549   4.5550
     4.6991   4.8426   4.8427   5.0937   5.0937   5.2285   5.2776   5.2782
     5.3472   5.4671   5.4672   5.5056   5.5057   5.5704   5.6157   5.6278
     5.6281   5.6544   5.6545   5.8030   5.9174   5.9177   6.0278   6.0282
     6.0320   6.0325   6.0423   6.0425   6.0614   6.2156   6.2884   6.2961
     6.2964   6.4323   6.4986   6.4990   6.5072   6.5836   6.5838   6.6314
     6.6316   6.6832   6.7247   6.7554   6.7754   6.8075   6.8902   6.9383
     6.9385   7.0006   7.0008   7.0120   7.0123   7.0232   7.0247   7.0249
     7.0291   7.0291   7.0538   7.1602   7.2056   7.2135   7.2137   7.3855
     7.5177   7.5388   7.7091   7.8286   8.2956   8.3482   8.3483   8.5295
     8.5904   8.6255   8.6255   8.8850   8.8850   8.9413   8.9413   9.0232
     9.1016   9.1887   9.3144   9.3148   9.3386   9.4414   9.5041   9.5043
     9.5280   9.6964   9.6964   9.7368   9.7590   9.7591   9.7720   9.8477
     9.8478   9.8751   9.8753   9.8906   9.9548   9.9551   9.9659  10.2657
    10.2658  10.3612  10.3613  10.3681  10.3682  10.4601  10.4866  10.4869
    10.6303  10.6303  10.6684  10.6737  10.7929  10.9048  10.9208  10.9770
    10.9771  10.9787  10.9789  11.0167  11.0169  11.0816  11.0975  11.2379
    11.2528  11.2530  11.3363  11.3365  11.3420  11.3511  11.3761  11.4733
    11.4735  11.6620  11.6620  11.7037  11.7162  11.7162  11.7619  11.7622
    11.9343  11.9688  11.9759  12.0153  12.0191  12.0193  12.0347  12.0348
    12.0410  12.0483  12.1366  12.1367  12.1387  12.1391  12.2109  12.2109
    12.2460  12.2593  12.3241  12.4806  12.5506  12.5508  12.5778  12.5781
    12.5907  12.5912  12.6879  12.7144  12.7626  12.7760  12.8493  12.8802

     occupation numbers 
     1.0000   1.0000   1.0000   1.0000   1.0000   1.0000   1.0000   1.0000
     1.0000   1.0000   1.0000   1.0000   1.0000   1.0000   1.0000   1.0000
     1.0000   1.0000   1.0000   1.0000   1.0000   1.0000   1.0000   1.0000
     1.0000   1.0000   1.0000   1.0000   1.0000   1.0000   1.0000   1.0000
     1.0000   1.0000   1.0000   1.0000   1.0000   1.0000   1.0000   1.0000
     1.0000   1.0000   1.0000   1.0000   1.0000   1.0000   1.0000   1.0000
     1.0000   1.0000   1.0000   1.0000   1.0000   1.0000   1.0000   1.0000
     1.0000   1.0000   1.0000   1.0000   1.0000   1.0000   1.0000   1.0000
     1.0000   1.0000   1.0000   1.0000   1.0000   1.0000   1.0000   1.0000
     1.0000   1.0000   1.0000   1.0000   1.0000   1.0000   1.0000   1.0000
     1.0000   1.0000   1.0000   1.0000   1.0000   1.0000   1.0000   1.0000
     1.0000   1.0000   1.0000   1.0000   1.0000   1.0000   1.0000   1.0000
     1.0000   1.0000   1.0000   1.0000   1.0000   1.0000   1.0000   1.0000
     1.0000   1.0000   1.0000   1.0000   1.0000   1.0000   1.0000   1.0000
     1.0000   1.0000   1.0000   1.0000   1.0000   1.0000   1.0000   1.0000
     1.0000   1.0000   1.0000   1.0000   1.0000   1.0000   1.0000   1.0000
     1.0000   1.0000   1.0000   1.0000   1.0000   1.0000   1.0000   1.0000
     1.0000   1.0000   1.0000   1.0000   1.0000   1.0000   1.0000   1.0000
     1.0000   1.0000   1.0000   1.0000   1.0000   1.0000   1.0000   1.0000
     1.0000   1.0000   1.0000   1.0000   1.0000   1.0000   1.0000   1.0000
     1.0000   1.0000   1.0000   1.0000   1.0000   1.0000   1.0000   1.0000
     1.0000   1.0000   1.0000   1.0000   1.0000   1.0000   1.0000   1.0000
     1.0000   1.0000   1.0000   1.0000   1.0000   1.0000   1.0000   1.0000
     1.0000   1.0000   1.0000   1.0000   1.0000   1.0000   1.0000   1.0000
     1.0000   1.0000   1.0000   1.0000   1.0000   1.0000   1.0000   1.0000
     1.0000   1.0000   1.0000   1.0000   1.0000   1.0000   1.0000   1.0000
     1.0000   1.0000   1.0000   1.0000   1.0000   1.0000   1.0000   1.0000
     1.0000   1.0000   1.0000   1.0000   1.0000   1.0000   1.0000   1.0000
     1.0000   1.0000   1.0000   1.0000   1.0000   1.0000   1.0000   1.0000
     1.0000   1.0000   1.0000   1.0000   1.0000   1.0000   1.0000   1.0000
     1.0000   1.0000   1.0000   1.0000   1.0000   1.0000   1.0000   1.0000
     1.0000   1.0000   1.0000   1.0000   1.0000   1.0000   1.0000   1.0000
     1.0000   1.0000   1.0000   1.0000   1.0000   1.0000   1.0000   1.0000
     1.0000   1.0000   1.0000   1.0000   1.0000   1.0000   1.0000   1.0000
     1.0000   1.0000   1.0000   1.0000   1.0000   1.0000   1.0000   1.0000
     1.0000   1.0000   1.0000   1.0000   1.0000   1.0000   1.0000   1.0000
     1.0000   1.0000   1.0000   1.0000   1.0000   1.0000   1.0000   1.0000
     1.0000   1.0000   1.0000   1.0000   1.0000   1.0000   1.0000   1.0000
     1.0000   1.0000   1.0000   1.0000   1.0000   1.0000   1.0000   1.0000
     1.0000   1.0000   1.0000   1.0000   1.0000   1.0000   1.0000   1.0000
     1.0000   1.0000   1.0000   1.0000   1.0000   1.0000   1.0000   1.0000
     1.0000   1.0000   1.0000   1.0000   1.0000   1.0000   1.0000   1.0000
     1.0000   1.0000   1.0000   1.0000   1.0000   1.0000   1.0000   1.0000
     1.0000   1.0000   1.0000   1.0000   1.0000   1.0000   1.0000   1.0000
     1.0000   1.0000   1.0000   1.0000   1.0000   1.0000   1.0000   1.0000
     1.0000   1.0000   1.0000   1.0000   1.0000   1.0000   1.0000   1.0000
     1.0000   1.0000   1.0000   1.0000   1.0000   1.0000   1.0000   1.0000
     1.0000   1.0000   1.0000   1.0000   1.0000   1.0000   1.0000   1.0000
     1.0000   1.0000   1.0000   1.0000   1.0000   1.0000   1.0000   1.0000
     1.0000   1.0000   1.0000   1.0000   1.0000   1.0000   1.0000   1.0000
     1.0000   1.0000   1.0000   1.0000   1.0000   1.0000   1.0000   1.0000
     1.0000   1.0000   1.0000   1.0000   1.0000   1.0000   1.0000   1.0000
     1.0000   1.0000   1.0000   1.0000   1.0000   1.0000   1.0000   1.0000
     1.0000   1.0000   1.0000   1.0000   1.0000   1.0000   1.0000   1.0000
     1.0000   1.0000   1.0000   1.0000   1.0000   1.0000   1.0000   1.0000
     1.0000   1.0000   1.0000   1.0000   1.0000   1.0000   1.0000   1.0000
     1.0000   1.0000   1.0000   1.0000   1.0000   1.0000   1.0000   1.0000
     1.0000   1.0000   1.0000   1.0000   1.0000   1.0000   1.0000   1.0000
     1.0000   1.0000   1.0000   1.0000   1.0000   1.0000   1.0000   1.0000
     1.0000   1.0000   1.0000   1.0000   1.0000   1.0000   1.0000   1.0000
     1.0000   1.0000   1.0000   1.0000   1.0000   1.0000   1.0000   1.0000
     1.0000   1.0000   1.0000   1.0000   1.0000   1.0000   1.0000   1.0000
     1.0000   1.0000   1.0000   1.0000   1.0000   1.0000   1.0000   1.0000
     1.0000   1.0000   1.0000   1.0000   1.0000   1.0000   1.0000   1.0000
     1.0000   1.0000   1.0000   1.0000   1.0000   1.0000   1.0000   1.0000
     1.0000   1.0000   1.0000   1.0000   1.0000   1.0000   1.0000   1.0000
     1.0000   1.0000   1.0000   1.0000   1.0000   1.0000   1.0000   1.0000
     1.0000   1.0000   1.0086   1.0325  -0.0023  -0.0004  -0.0004  -0.0000
    -0.0000  -0.0000  -0.0000  -0.0000  -0.0000  -0.0000  -0.0000  -0.0000
    -0.0000  -0.0000  -0.0000  -0.0000  -0.0000  -0.0000  -0.0000  -0.0000
    -0.0000  -0.0000  -0.0000  -0.0000  -0.0000  -0.0000  -0.0000  -0.0000
    -0.0000  -0.0000  -0.0000  -0.0000  -0.0000  -0.0000  -0.0000  -0.0000
    -0.0000  -0.0000  -0.0000  -0.0000  -0.0000  -0.0000  -0.0000  -0.0000
    -0.0000  -0.0000  -0.0000  -0.0000  -0.0000  -0.0000  -0.0000  -0.0000
    -0.0000  -0.0000  -0.0000  -0.0000  -0.0000  -0.0000  -0.0000  -0.0000
    -0.0000  -0.0000  -0.0000  -0.0000  -0.0000  -0.0000  -0.0000  -0.0000
    -0.0000  -0.0000  -0.0000  -0.0000  -0.0000  -0.0000  -0.0000  -0.0000
    -0.0000  -0.0000  -0.0000  -0.0000  -0.0000  -0.0000  -0.0000  -0.0000
    -0.0000  -0.0000  -0.0000  -0.0000  -0.0000  -0.0000  -0.0000  -0.0000
    -0.0000  -0.0000  -0.0000  -0.0000  -0.0000  -0.0000  -0.0000  -0.0000
    -0.0000  -0.0000  -0.0000  -0.0000  -0.0000  -0.0000  -0.0000  -0.0000

          k = 0.0000 0.2887-0.4746 (554696 PWs)   bands (ev):

   -68.2851 -68.2849 -68.2848 -68.2848 -68.2846 -68.2846 -68.2846 -68.2846
   -68.2846 -68.2846 -68.2846 -68.2846 -68.2846 -68.2845 -68.2844 -68.2844
   -68.2842 -68.2841 -67.7467 -67.7456 -67.7455 -67.7452 -67.7448 -67.7446
   -67.7446 -67.7445 -67.7444 -67.7444 -67.7443 -67.7443 -67.7442 -67.7441
   -67.7441 -67.7441 -67.7441 -67.7440 -67.7439 -67.7439 -67.7438 -67.7438
   -67.7438 -67.7437 -67.7436 -67.7436 -67.7435 -67.7435 -67.7434 -67.7433
   -67.7433 -67.7431 -67.7428 -67.7424 -67.7423 -67.7412 -35.6961 -35.6960
   -35.6959 -35.6959 -35.6957 -35.6957 -35.6957 -35.6957 -35.6956 -35.6956
   -35.6956 -35.6956 -35.6956 -35.6956 -35.6954 -35.6954 -35.6953 -35.6952
   -35.6912 -35.6912 -35.6911 -35.6911 -35.6910 -35.6910 -35.6910 -35.6909
   -35.6908 -35.6908 -35.6908 -35.6908 -35.6908 -35.6908 -35.6908 -35.6907
   -35.6907 -35.6907 -35.6907 -35.6907 -35.6907 -35.6907 -35.6907 -35.6907
   -35.6907 -35.6907 -35.6906 -35.6906 -35.6905 -35.6905 -35.6905 -35.6905
   -35.6904 -35.6903 -35.6903 -35.6902 -35.1792 -35.1789 -35.1784 -35.1783
   -35.1782 -35.1781 -35.1779 -35.1778 -35.1777 -35.1776 -35.1776 -35.1774
   -35.1774 -35.1774 -35.1774 -35.1774 -35.1773 -35.1772 -35.1771 -35.1771
   -35.1771 -35.1771 -35.1771 -35.1770 -35.1770 -35.1769 -35.1768 -35.1768
   -35.1768 -35.1768 -35.1766 -35.1765 -35.1764 -35.1764 -35.1763 -35.1763
   -35.1762 -35.1761 -35.1760 -35.1759 -35.1758 -35.1758 -35.1758 -35.1757
   -35.1755 -35.1753 -35.1752 -35.1751 -35.1749 -35.1747 -35.1745 -35.1744
   -35.1742 -35.1733 -35.1720 -35.1716 -35.1714 -35.1712 -35.1712 -35.1710
   -35.1709 -35.1707 -35.1706 -35.1706 -35.1705 -35.1704 -35.1704 -35.1704
   -35.1703 -35.1702 -35.1701 -35.1701 -35.1699 -35.1698 -35.1698 -35.1696
   -35.1696 -35.1695 -35.1694 -35.1693 -35.1692 -35.1691 -35.1691 -35.1690
   -35.1689 -35.1688 -35.1687 -35.1687 -35.1686 -35.1686 -35.1685 -35.1684
   -35.1684 -35.1683 -35.1683 -35.1682 -35.1682 -35.1681 -35.1681 -35.1680
   -35.1680 -35.1678 -35.1677 -35.1676 -35.1673 -35.1672 -35.1669 -35.1663
   -14.2175 -14.2173 -14.2167 -14.2164 -14.2161 -14.2159 -14.2156 -14.2156
   -14.2153 -14.2149 -14.2147 -14.2145 -14.2144 -14.2142 -14.2142 -14.2139
   -14.2135 -14.2128 -14.2127 -14.2121 -14.2114 -14.2112 -14.2107 -14.2106
   -14.2104 -14.2103 -14.2102 -14.2100 -14.2099 -14.2098 -14.2097 -14.2097
   -14.2096 -14.2095 -14.2093 -14.2093 -14.2090 -14.2090 -14.2089 -14.2088
   -14.2088 -14.2087 -14.2087 -14.2086 -14.2085 -14.2084 -14.2083 -14.2082
   -14.2080 -14.2080 -14.2079 -14.2078 -14.2077 -14.2075 -14.2073 -14.2070
   -14.2066 -14.2062 -14.2061 -14.2052 -14.2050 -14.2049 -14.2047 -14.2045
   -14.2044 -14.2042 -14.2042 -14.2040 -14.2037 -14.2036 -14.2028 -14.2023
   -14.1901 -14.1887 -14.1884 -14.1877 -14.1875 -14.1873 -14.1872 -14.1871
   -14.1871 -14.1870 -14.1869 -14.1868 -14.1867 -14.1865 -14.1861 -14.1859
   -14.1851 -14.1849 -14.1848 -14.1847 -14.1846 -14.1844 -14.1841 -14.1840
   -14.1838 -14.1838 -14.1834 -14.1832 -14.1831 -14.1830 -14.1830 -14.1828
   -14.1826 -14.1824 -14.1823 -14.1808 -14.1747 -14.1745 -14.1740 -14.1740
   -14.1731 -14.1727 -14.1722 -14.1721 -14.1720 -14.1719 -14.1718 -14.1718
   -14.1717 -14.1716 -14.1715 -14.1712 -14.1710 -14.1708 -14.1707 -14.1707
   -14.1706 -14.1703 -14.1702 -14.1700 -14.1699 -14.1697 -14.1692 -14.1690
   -14.1688 -14.1682 -14.1681 -14.1674 -14.1657 -14.1654 -14.1653 -14.1651
   -14.1650 -14.1644 -14.1642 -14.1640 -14.1638 -14.1637 -14.1635 -14.1634
   -14.1632 -14.1629 -14.1628 -14.1626 -14.1623 -14.1620 -14.1618 -14.1613
   -14.1601 -14.1598 -14.1594 -14.1592 -14.1587 -14.1585 -14.1585 -14.1584
   -14.1582 -14.1580 -14.1578 -14.1577 -14.1576 -14.1574 -14.1572 -14.1571
   -14.1568 -14.1566 -14.1562 -14.1559  -3.5888  -3.5882  -3.3088  -3.3069
    -3.1886  -3.1881  -3.1862  -3.1857  -2.9945  -2.9941  -2.9904  -2.9900
    -2.9282  -2.9234  -2.8761  -2.8755  -2.7385  -2.7381  -2.7372  -2.7368
    -2.7235  -2.7205  -2.6710  -2.6706  -2.6676  -2.6672  -2.6137  -2.6133
    -2.6083  -2.6079  -2.6073  -2.6013  -2.5993  -2.5989  -2.5980  -2.5975
     3.1335   3.2198   3.3052   3.3053   3.4355   3.4357   3.4778   3.4782
     3.4783   3.4806   3.5069   3.5072   3.5827   3.5828   3.6189   3.7340
     3.7373   3.7375   3.8055   3.8272   3.8278   3.8689   3.8693   3.8827
     3.8977   3.8981   4.0319   4.0320   4.2032   4.2033   4.2639   4.2640
     4.2722   4.2724   4.4160   4.4162   4.5305   4.7539   4.9560   4.9562
     5.0415   5.0416   5.0436   5.0610   5.0612   5.0687   5.0689   5.1551
     5.1959   5.2380   5.3660   5.3663   5.3668   5.3671   5.7037   5.7041
     5.7314   5.7317   5.8662   5.8667   5.8668   5.8672   5.9016   5.9126
     5.9372   5.9373   5.9443   5.9445   6.0320   6.0763   6.3089   6.3461
     6.5409   6.5412   6.5460   6.5463   6.5540   6.5831   6.5834   6.6137
     6.6138   6.6534   6.6654   6.7217   6.8010   6.8011   6.8432   6.8434
     6.9333   6.9715   6.9896   6.9898   6.9899   6.9959   7.0231   7.0234
     7.1985   7.2550   7.2678   7.2940   7.2942   7.3001   7.3004   7.3490
     7.4295   7.5447   7.5736   7.6759   8.0363   8.3973   8.4414   8.4415
     8.5372   8.6555   8.6556   8.9556   8.9556   9.0792   9.1120   9.1120
     9.1273   9.1273   9.2047   9.3008   9.3651   9.3719   9.4428   9.4428
     9.4743   9.4744   9.5402   9.5403   9.5820   9.6228   9.6926   9.6927
     9.7332   9.8583   9.9946   9.9949  10.2825  10.2828  10.3156  10.3507
    10.3510  10.3879  10.3882  10.3883  10.3886  10.3889  10.5897  10.6836
    10.7960  10.7962  10.7988  10.7991  10.8563  10.8563  10.8753  10.8754
    10.9435  10.9842  10.9842  11.0047  11.0188  11.1498  11.1498  11.1673
    11.1675  11.2214  11.2310  11.3603  11.3604  11.4108  11.4109  11.4117
    11.4119  11.4340  11.4566  11.5511  11.5737  11.6032  11.6798  11.7430
    11.8149  11.8253  11.8497  11.8914  11.8916  11.9872  11.9876  12.0537
    12.0903  12.1691  12.1839  12.3093  12.3095  12.3109  12.3114  12.3148
    12.3149  12.3354  12.3619  12.5171  12.5175  12.5306  12.5306  12.5551
    12.5808  12.6487  12.6488  12.6640  12.6698  12.6783  12.6785  12.6982

     occupation numbers 
     1.0000   1.0000   1.0000   1.0000   1.0000   1.0000   1.0000   1.0000
     1.0000   1.0000   1.0000   1.0000   1.0000   1.0000   1.0000   1.0000
     1.0000   1.0000   1.0000   1.0000   1.0000   1.0000   1.0000   1.0000
     1.0000   1.0000   1.0000   1.0000   1.0000   1.0000   1.0000   1.0000
     1.0000   1.0000   1.0000   1.0000   1.0000   1.0000   1.0000   1.0000
     1.0000   1.0000   1.0000   1.0000   1.0000   1.0000   1.0000   1.0000
     1.0000   1.0000   1.0000   1.0000   1.0000   1.0000   1.0000   1.0000
     1.0000   1.0000   1.0000   1.0000   1.0000   1.0000   1.0000   1.0000
     1.0000   1.0000   1.0000   1.0000   1.0000   1.0000   1.0000   1.0000
     1.0000   1.0000   1.0000   1.0000   1.0000   1.0000   1.0000   1.0000
     1.0000   1.0000   1.0000   1.0000   1.0000   1.0000   1.0000   1.0000
     1.0000   1.0000   1.0000   1.0000   1.0000   1.0000   1.0000   1.0000
     1.0000   1.0000   1.0000   1.0000   1.0000   1.0000   1.0000   1.0000
     1.0000   1.0000   1.0000   1.0000   1.0000   1.0000   1.0000   1.0000
     1.0000   1.0000   1.0000   1.0000   1.0000   1.0000   1.0000   1.0000
     1.0000   1.0000   1.0000   1.0000   1.0000   1.0000   1.0000   1.0000
     1.0000   1.0000   1.0000   1.0000   1.0000   1.0000   1.0000   1.0000
     1.0000   1.0000   1.0000   1.0000   1.0000   1.0000   1.0000   1.0000
     1.0000   1.0000   1.0000   1.0000   1.0000   1.0000   1.0000   1.0000
     1.0000   1.0000   1.0000   1.0000   1.0000   1.0000   1.0000   1.0000
     1.0000   1.0000   1.0000   1.0000   1.0000   1.0000   1.0000   1.0000
     1.0000   1.0000   1.0000   1.0000   1.0000   1.0000   1.0000   1.0000
     1.0000   1.0000   1.0000   1.0000   1.0000   1.0000   1.0000   1.0000
     1.0000   1.0000   1.0000   1.0000   1.0000   1.0000   1.0000   1.0000
     1.0000   1.0000   1.0000   1.0000   1.0000   1.0000   1.0000   1.0000
     1.0000   1.0000   1.0000   1.0000   1.0000   1.0000   1.0000   1.0000
     1.0000   1.0000   1.0000   1.0000   1.0000   1.0000   1.0000   1.0000
     1.0000   1.0000   1.0000   1.0000   1.0000   1.0000   1.0000   1.0000
     1.0000   1.0000   1.0000   1.0000   1.0000   1.0000   1.0000   1.0000
     1.0000   1.0000   1.0000   1.0000   1.0000   1.0000   1.0000   1.0000
     1.0000   1.0000   1.0000   1.0000   1.0000   1.0000   1.0000   1.0000
     1.0000   1.0000   1.0000   1.0000   1.0000   1.0000   1.0000   1.0000
     1.0000   1.0000   1.0000   1.0000   1.0000   1.0000   1.0000   1.0000
     1.0000   1.0000   1.0000   1.0000   1.0000   1.0000   1.0000   1.0000
     1.0000   1.0000   1.0000   1.0000   1.0000   1.0000   1.0000   1.0000
     1.0000   1.0000   1.0000   1.0000   1.0000   1.0000   1.0000   1.0000
     1.0000   1.0000   1.0000   1.0000   1.0000   1.0000   1.0000   1.0000
     1.0000   1.0000   1.0000   1.0000   1.0000   1.0000   1.0000   1.0000
     1.0000   1.0000   1.0000   1.0000   1.0000   1.0000   1.0000   1.0000
     1.0000   1.0000   1.0000   1.0000   1.0000   1.0000   1.0000   1.0000
     1.0000   1.0000   1.0000   1.0000   1.0000   1.0000   1.0000   1.0000
     1.0000   1.0000   1.0000   1.0000   1.0000   1.0000   1.0000   1.0000
     1.0000   1.0000   1.0000   1.0000   1.0000   1.0000   1.0000   1.0000
     1.0000   1.0000   1.0000   1.0000   1.0000   1.0000   1.0000   1.0000
     1.0000   1.0000   1.0000   1.0000   1.0000   1.0000   1.0000   1.0000
     1.0000   1.0000   1.0000   1.0000   1.0000   1.0000   1.0000   1.0000
     1.0000   1.0000   1.0000   1.0000   1.0000   1.0000   1.0000   1.0000
     1.0000   1.0000   1.0000   1.0000   1.0000   1.0000   1.0000   1.0000
     1.0000   1.0000   1.0000   1.0000   1.0000   1.0000   1.0000   1.0000
     1.0000   1.0000   1.0000   1.0000   1.0000   1.0000   1.0000   1.0000
     1.0000   1.0000   1.0000   1.0000   1.0000   1.0000   1.0000   1.0000
     1.0000   1.0000   1.0000   1.0000   1.0000   1.0000   1.0000   1.0000
     1.0000   1.0000   1.0000   1.0000   1.0000   1.0000   1.0000   1.0000
     1.0000   1.0000   1.0000   1.0000   1.0000   1.0000   1.0000   1.0000
     1.0000   1.0000   1.0000   1.0000   1.0000   1.0000   1.0000   1.0000
     1.0000   1.0000   1.0000   1.0000   1.0000   1.0000   1.0000   1.0000
     1.0000   1.0000   1.0000   1.0000   1.0000   1.0000   1.0000   1.0000
     1.0000   1.0000   1.0000   1.0000   1.0000   1.0000   1.0000   1.0000
     1.0000   1.0000   1.0000   1.0000   1.0000   1.0000   1.0000   1.0000
     1.0000   1.0000   1.0000   1.0000   1.0000   1.0000   1.0000   1.0000
     1.0000   1.0000   1.0000   1.0000   1.0000   1.0000   1.0000   1.0000
     1.0000   1.0000   1.0000   1.0000   1.0000   1.0000   1.0000   1.0000
     1.0000   1.0000   1.0000   1.0000   1.0000   1.0000   1.0000   1.0000
     1.0000   1.0000   1.0000   1.0000   1.0000   1.0000   1.0000   1.0000
     1.0000   1.0000   1.0000   1.0000   1.0000   1.0000   1.0000   1.0000
     1.0000   1.0000   1.0000   1.0000   1.0000   1.0000   1.0000   1.0000
     1.0000   1.0000   1.0000   1.0000   1.0000   1.0000   1.0000   1.0000
     1.0000   1.0000   1.0001   1.0037   0.1712  -0.0001  -0.0000  -0.0000
    -0.0000  -0.0000  -0.0000  -0.0000  -0.0000  -0.0000  -0.0000  -0.0000
    -0.0000  -0.0000  -0.0000  -0.0000  -0.0000  -0.0000  -0.0000  -0.0000
    -0.0000  -0.0000  -0.0000  -0.0000  -0.0000  -0.0000  -0.0000  -0.0000
    -0.0000  -0.0000  -0.0000  -0.0000  -0.0000  -0.0000  -0.0000  -0.0000
    -0.0000  -0.0000  -0.0000  -0.0000  -0.0000  -0.0000  -0.0000  -0.0000
    -0.0000  -0.0000  -0.0000  -0.0000  -0.0000  -0.0000  -0.0000  -0.0000
    -0.0000  -0.0000  -0.0000  -0.0000  -0.0000  -0.0000  -0.0000  -0.0000
    -0.0000  -0.0000  -0.0000  -0.0000  -0.0000  -0.0000  -0.0000  -0.0000
    -0.0000  -0.0000  -0.0000  -0.0000  -0.0000  -0.0000  -0.0000  -0.0000
    -0.0000  -0.0000  -0.0000  -0.0000  -0.0000  -0.0000  -0.0000  -0.0000
    -0.0000  -0.0000  -0.0000  -0.0000  -0.0000  -0.0000  -0.0000  -0.0000
    -0.0000  -0.0000  -0.0000  -0.0000  -0.0000  -0.0000  -0.0000  -0.0000
    -0.0000  -0.0000  -0.0000  -0.0000  -0.0000  -0.0000  -0.0000  -0.0000

          k = 0.0000-0.5774 0.0000 (554524 PWs)   bands (ev):

   -68.2851 -68.2849 -68.2848 -68.2848 -68.2846 -68.2846 -68.2846 -68.2846
   -68.2846 -68.2846 -68.2846 -68.2846 -68.2846 -68.2845 -68.2844 -68.2844
   -68.2842 -68.2841 -67.7467 -67.7456 -67.7455 -67.7452 -67.7448 -67.7446
   -67.7446 -67.7445 -67.7444 -67.7444 -67.7443 -67.7443 -67.7442 -67.7441
   -67.7441 -67.7441 -67.7441 -67.7440 -67.7439 -67.7438 -67.7438 -67.7438
   -67.7438 -67.7437 -67.7436 -67.7436 -67.7435 -67.7435 -67.7434 -67.7434
   -67.7433 -67.7431 -67.7428 -67.7424 -67.7423 -67.7412 -35.6961 -35.6960
   -35.6959 -35.6959 -35.6957 -35.6957 -35.6957 -35.6957 -35.6956 -35.6956
   -35.6956 -35.6956 -35.6956 -35.6956 -35.6954 -35.6954 -35.6953 -35.6952
   -35.6912 -35.6912 -35.6911 -35.6911 -35.6910 -35.6910 -35.6910 -35.6909
   -35.6908 -35.6908 -35.6908 -35.6908 -35.6908 -35.6908 -35.6908 -35.6907
   -35.6907 -35.6907 -35.6907 -35.6907 -35.6907 -35.6907 -35.6907 -35.6907
   -35.6907 -35.6907 -35.6906 -35.6906 -35.6905 -35.6905 -35.6905 -35.6905
   -35.6904 -35.6903 -35.6903 -35.6902 -35.1792 -35.1789 -35.1784 -35.1784
   -35.1782 -35.1781 -35.1779 -35.1778 -35.1777 -35.1776 -35.1775 -35.1775
   -35.1774 -35.1774 -35.1774 -35.1773 -35.1773 -35.1772 -35.1772 -35.1771
   -35.1771 -35.1771 -35.1770 -35.1770 -35.1769 -35.1769 -35.1768 -35.1768
   -35.1767 -35.1766 -35.1766 -35.1765 -35.1765 -35.1764 -35.1764 -35.1763
   -35.1762 -35.1761 -35.1760 -35.1760 -35.1758 -35.1757 -35.1757 -35.1757
   -35.1754 -35.1753 -35.1751 -35.1750 -35.1750 -35.1748 -35.1746 -35.1745
   -35.1739 -35.1736 -35.1720 -35.1715 -35.1715 -35.1712 -35.1712 -35.1710
   -35.1708 -35.1707 -35.1706 -35.1706 -35.1705 -35.1705 -35.1704 -35.1703
   -35.1703 -35.1702 -35.1702 -35.1700 -35.1700 -35.1700 -35.1698 -35.1697
   -35.1696 -35.1695 -35.1693 -35.1693 -35.1692 -35.1692 -35.1691 -35.1690
   -35.1688 -35.1688 -35.1687 -35.1687 -35.1686 -35.1685 -35.1685 -35.1684
   -35.1683 -35.1682 -35.1682 -35.1682 -35.1682 -35.1681 -35.1681 -35.1680
   -35.1680 -35.1678 -35.1677 -35.1676 -35.1673 -35.1672 -35.1670 -35.1663
   -14.2178 -14.2171 -14.2167 -14.2162 -14.2158 -14.2156 -14.2153 -14.2152
   -14.2150 -14.2148 -14.2146 -14.2145 -14.2144 -14.2144 -14.2142 -14.2141
   -14.2135 -14.2133 -14.2121 -14.2118 -14.2115 -14.2114 -14.2111 -14.2110
   -14.2108 -14.2106 -14.2105 -14.2104 -14.2103 -14.2102 -14.2101 -14.2101
   -14.2100 -14.2099 -14.2097 -14.2091 -14.2091 -14.2091 -14.2089 -14.2085
   -14.2084 -14.2083 -14.2082 -14.2081 -14.2080 -14.2080 -14.2078 -14.2078
   -14.2076 -14.2076 -14.2076 -14.2074 -14.2072 -14.2071 -14.2070 -14.2069
   -14.2067 -14.2066 -14.2064 -14.2060 -14.2057 -14.2056 -14.2053 -14.2050
   -14.2047 -14.2045 -14.2041 -14.2038 -14.2035 -14.2031 -14.2027 -14.2021
   -14.1899 -14.1886 -14.1882 -14.1879 -14.1877 -14.1874 -14.1873 -14.1870
   -14.1867 -14.1865 -14.1865 -14.1863 -14.1862 -14.1862 -14.1858 -14.1857
   -14.1856 -14.1855 -14.1854 -14.1853 -14.1852 -14.1851 -14.1845 -14.1844
   -14.1842 -14.1840 -14.1833 -14.1831 -14.1830 -14.1829 -14.1829 -14.1827
   -14.1825 -14.1824 -14.1820 -14.1808 -14.1743 -14.1740 -14.1735 -14.1733
   -14.1733 -14.1732 -14.1732 -14.1731 -14.1724 -14.1723 -14.1719 -14.1719
   -14.1718 -14.1716 -14.1716 -14.1713 -14.1711 -14.1710 -14.1707 -14.1707
   -14.1705 -14.1705 -14.1704 -14.1701 -14.1698 -14.1691 -14.1681 -14.1673
   -14.1672 -14.1671 -14.1671 -14.1667 -14.1667 -14.1666 -14.1665 -14.1662
   -14.1660 -14.1652 -14.1641 -14.1639 -14.1639 -14.1638 -14.1637 -14.1636
   -14.1635 -14.1631 -14.1621 -14.1620 -14.1619 -14.1616 -14.1608 -14.1607
   -14.1606 -14.1606 -14.1592 -14.1590 -14.1588 -14.1586 -14.1586 -14.1585
   -14.1583 -14.1581 -14.1579 -14.1578 -14.1577 -14.1575 -14.1572 -14.1570
   -14.1568 -14.1565 -14.1561 -14.1556  -3.5716  -3.5714  -3.3136  -3.3134
    -3.2957  -3.2952  -3.0767  -3.0762  -3.0223  -3.0221  -2.9089  -2.9084
    -2.9083  -2.9078  -2.8852  -2.8456  -2.8452  -2.7804  -2.7799  -2.7799
    -2.7794  -2.7650  -2.6758  -2.6693  -2.6689  -2.6687  -2.6684  -2.6654
    -2.6652  -2.5710  -2.5707  -2.5653  -2.5449  -2.5445  -2.5444  -2.5440
     2.9703   3.2045   3.2197   3.2198   3.2805   3.2809   3.2813   3.2817
     3.3888   3.5013   3.5017   3.5020   3.5024   3.5748   3.5754   3.5757
     3.5763   3.6926   3.6932   3.9518   3.9520   4.0313   4.0314   4.1589
     4.2802   4.2807   4.2809   4.2815   4.3693   4.3696   4.5498   4.5502
     4.5620   4.5626   4.5626   4.5632   4.6070   4.6072   4.6301   4.6304
     4.6855   4.9404   4.9406   4.9407   4.9409   5.0605   5.0605   5.0607
     5.0608   5.4197   5.4197   5.4969   5.4970   5.4971   5.4973   5.7071
     5.7995   5.8026   5.8029   6.0078   6.0081   6.0583   6.0583   6.0638
     6.0639   6.1148   6.1151   6.1153   6.1156   6.1338   6.1581   6.3350
     6.3350   6.3448   6.3450   6.3452   6.3453   6.4667   6.4670   6.4699
     6.4700   6.4894   6.4896   6.5017   6.5180   6.5186   6.5271   6.7377
     6.7380   6.7381   6.7384   6.8686   6.8690   6.8691   6.8694   6.9063
     6.9069   6.9245   6.9245   7.1516   7.1522   7.1857   7.1860   7.2639
     7.7355   7.7364   7.8220   7.8222   8.2803   8.4091   8.8505   8.8506
     8.8508   8.8509   9.0688   9.1754   9.1755   9.1756   9.1756   9.3656
     9.3661   9.5385   9.5389   9.6128   9.6130   9.6132   9.6134   9.6179
     9.6182   9.6217   9.6218   9.6280   9.6282   9.6653   9.7029  10.0580
    10.0588  10.0630  10.0631  10.0632  10.0633  10.2339  10.2490  10.4487
    10.4491  10.5445  10.5446  10.6257  10.6258  10.7823  10.7831  10.7898
    10.7901  10.7905  10.7908  10.8399  10.8401  10.8500  10.8696  10.8698
    10.9330  10.9332  10.9332  10.9334  11.0548  11.0549  11.0955  11.0958
    11.0960  11.0963  11.2565  11.2568  11.2790  11.2791  11.2793  11.2793
    11.3079  11.3082  11.3279  11.3280  11.3752  11.3756  11.4342  11.4347
    11.4973  11.4976  11.6019  11.6020  11.7057  11.7057  11.8302  11.8305
    11.8307  11.8310  11.9048  11.9055  12.0286  12.0288  12.0289  12.0291
    12.1192  12.1195  12.3008  12.3010  12.3509  12.3512  12.3532  12.3532
    12.4857  12.4859  12.5635  12.5637  12.5726  12.6901  12.6902  12.8096

     occupation numbers 
     1.0000   1.0000   1.0000   1.0000   1.0000   1.0000   1.0000   1.0000
     1.0000   1.0000   1.0000   1.0000   1.0000   1.0000   1.0000   1.0000
     1.0000   1.0000   1.0000   1.0000   1.0000   1.0000   1.0000   1.0000
     1.0000   1.0000   1.0000   1.0000   1.0000   1.0000   1.0000   1.0000
     1.0000   1.0000   1.0000   1.0000   1.0000   1.0000   1.0000   1.0000
     1.0000   1.0000   1.0000   1.0000   1.0000   1.0000   1.0000   1.0000
     1.0000   1.0000   1.0000   1.0000   1.0000   1.0000   1.0000   1.0000
     1.0000   1.0000   1.0000   1.0000   1.0000   1.0000   1.0000   1.0000
     1.0000   1.0000   1.0000   1.0000   1.0000   1.0000   1.0000   1.0000
     1.0000   1.0000   1.0000   1.0000   1.0000   1.0000   1.0000   1.0000
     1.0000   1.0000   1.0000   1.0000   1.0000   1.0000   1.0000   1.0000
     1.0000   1.0000   1.0000   1.0000   1.0000   1.0000   1.0000   1.0000
     1.0000   1.0000   1.0000   1.0000   1.0000   1.0000   1.0000   1.0000
     1.0000   1.0000   1.0000   1.0000   1.0000   1.0000   1.0000   1.0000
     1.0000   1.0000   1.0000   1.0000   1.0000   1.0000   1.0000   1.0000
     1.0000   1.0000   1.0000   1.0000   1.0000   1.0000   1.0000   1.0000
     1.0000   1.0000   1.0000   1.0000   1.0000   1.0000   1.0000   1.0000
     1.0000   1.0000   1.0000   1.0000   1.0000   1.0000   1.0000   1.0000
     1.0000   1.0000   1.0000   1.0000   1.0000   1.0000   1.0000   1.0000
     1.0000   1.0000   1.0000   1.0000   1.0000   1.0000   1.0000   1.0000
     1.0000   1.0000   1.0000   1.0000   1.0000   1.0000   1.0000   1.0000
     1.0000   1.0000   1.0000   1.0000   1.0000   1.0000   1.0000   1.0000
     1.0000   1.0000   1.0000   1.0000   1.0000   1.0000   1.0000   1.0000
     1.0000   1.0000   1.0000   1.0000   1.0000   1.0000   1.0000   1.0000
     1.0000   1.0000   1.0000   1.0000   1.0000   1.0000   1.0000   1.0000
     1.0000   1.0000   1.0000   1.0000   1.0000   1.0000   1.0000   1.0000
     1.0000   1.0000   1.0000   1.0000   1.0000   1.0000   1.0000   1.0000
     1.0000   1.0000   1.0000   1.0000   1.0000   1.0000   1.0000   1.0000
     1.0000   1.0000   1.0000   1.0000   1.0000   1.0000   1.0000   1.0000
     1.0000   1.0000   1.0000   1.0000   1.0000   1.0000   1.0000   1.0000
     1.0000   1.0000   1.0000   1.0000   1.0000   1.0000   1.0000   1.0000
     1.0000   1.0000   1.0000   1.0000   1.0000   1.0000   1.0000   1.0000
     1.0000   1.0000   1.0000   1.0000   1.0000   1.0000   1.0000   1.0000
     1.0000   1.0000   1.0000   1.0000   1.0000   1.0000   1.0000   1.0000
     1.0000   1.0000   1.0000   1.0000   1.0000   1.0000   1.0000   1.0000
     1.0000   1.0000   1.0000   1.0000   1.0000   1.0000   1.0000   1.0000
     1.0000   1.0000   1.0000   1.0000   1.0000   1.0000   1.0000   1.0000
     1.0000   1.0000   1.0000   1.0000   1.0000   1.0000   1.0000   1.0000
     1.0000   1.0000   1.0000   1.0000   1.0000   1.0000   1.0000   1.0000
     1.0000   1.0000   1.0000   1.0000   1.0000   1.0000   1.0000   1.0000
     1.0000   1.0000   1.0000   1.0000   1.0000   1.0000   1.0000   1.0000
     1.0000   1.0000   1.0000   1.0000   1.0000   1.0000   1.0000   1.0000
     1.0000   1.0000   1.0000   1.0000   1.0000   1.0000   1.0000   1.0000
     1.0000   1.0000   1.0000   1.0000   1.0000   1.0000   1.0000   1.0000
     1.0000   1.0000   1.0000   1.0000   1.0000   1.0000   1.0000   1.0000
     1.0000   1.0000   1.0000   1.0000   1.0000   1.0000   1.0000   1.0000
     1.0000   1.0000   1.0000   1.0000   1.0000   1.0000   1.0000   1.0000
     1.0000   1.0000   1.0000   1.0000   1.0000   1.0000   1.0000   1.0000
     1.0000   1.0000   1.0000   1.0000   1.0000   1.0000   1.0000   1.0000
     1.0000   1.0000   1.0000   1.0000   1.0000   1.0000   1.0000   1.0000
     1.0000   1.0000   1.0000   1.0000   1.0000   1.0000   1.0000   1.0000
     1.0000   1.0000   1.0000   1.0000   1.0000   1.0000   1.0000   1.0000
     1.0000   1.0000   1.0000   1.0000   1.0000   1.0000   1.0000   1.0000
     1.0000   1.0000   1.0000   1.0000   1.0000   1.0000   1.0000   1.0000
     1.0000   1.0000   1.0000   1.0000   1.0000   1.0000   1.0000   1.0000
     1.0000   1.0000   1.0000   1.0000   1.0000   1.0000   1.0000   1.0000
     1.0000   1.0000   1.0000   1.0000   1.0000   1.0000   1.0000   1.0000
     1.0000   1.0000   1.0000   1.0000   1.0000   1.0000   1.0000   1.0000
     1.0000   1.0000   1.0000   1.0000   1.0000   1.0000   1.0000   1.0000
     1.0000   1.0000   1.0000   1.0000   1.0000   1.0000   1.0000   1.0000
     1.0000   1.0000   1.0000   1.0000   1.0000   1.0000   1.0000   1.0000
     1.0000   1.0000   1.0000   1.0000   1.0000   1.0000   1.0000   1.0000
     1.0000   1.0000   1.0000   1.0000   1.0000   1.0000   1.0000   1.0000
     1.0000   1.0000   1.0000   1.0000   1.0000   1.0000   1.0000   1.0000
     1.0000   1.0000   1.0000   1.0000   1.0000   1.0000   1.0000   1.0000
     1.0000   1.0000   1.0000   1.0000   1.0000   1.0000   1.0000   1.0000
     1.0000   1.0000   1.0000   1.0000   1.0000   1.0000   1.0000   1.0000
     1.0151   1.0154   1.0344   1.0344  -0.0036  -0.0000  -0.0000  -0.0000
    -0.0000  -0.0000  -0.0000  -0.0000  -0.0000  -0.0000  -0.0000  -0.0000
    -0.0000  -0.0000  -0.0000  -0.0000  -0.0000  -0.0000  -0.0000  -0.0000
    -0.0000  -0.0000  -0.0000  -0.0000  -0.0000  -0.0000  -0.0000  -0.0000
    -0.0000  -0.0000  -0.0000  -0.0000  -0.0000  -0.0000  -0.0000  -0.0000
    -0.0000  -0.0000  -0.0000  -0.0000  -0.0000  -0.0000  -0.0000  -0.0000
    -0.0000  -0.0000  -0.0000  -0.0000  -0.0000  -0.0000  -0.0000  -0.0000
    -0.0000  -0.0000  -0.0000  -0.0000  -0.0000  -0.0000  -0.0000  -0.0000
    -0.0000  -0.0000  -0.0000  -0.0000  -0.0000  -0.0000  -0.0000  -0.0000
    -0.0000  -0.0000  -0.0000  -0.0000  -0.0000  -0.0000  -0.0000  -0.0000
    -0.0000  -0.0000  -0.0000  -0.0000  -0.0000  -0.0000  -0.0000  -0.0000
    -0.0000  -0.0000  -0.0000  -0.0000  -0.0000  -0.0000  -0.0000  -0.0000
    -0.0000  -0.0000  -0.0000  -0.0000  -0.0000  -0.0000  -0.0000  -0.0000
    -0.0000  -0.0000  -0.0000  -0.0000  -0.0000  -0.0000  -0.0000  -0.0000

          k = 0.0000-0.5774 0.2373 (554574 PWs)   bands (ev):

   -68.2851 -68.2849 -68.2848 -68.2848 -68.2846 -68.2846 -68.2846 -68.2846
   -68.2846 -68.2846 -68.2846 -68.2846 -68.2846 -68.2845 -68.2844 -68.2844
   -68.2842 -68.2841 -67.7467 -67.7456 -67.7455 -67.7452 -67.7448 -67.7446
   -67.7446 -67.7445 -67.7444 -67.7444 -67.7443 -67.7443 -67.7442 -67.7441
   -67.7441 -67.7441 -67.7441 -67.7440 -67.7439 -67.7438 -67.7438 -67.7438
   -67.7438 -67.7437 -67.7436 -67.7436 -67.7435 -67.7435 -67.7434 -67.7434
   -67.7433 -67.7431 -67.7428 -67.7424 -67.7423 -67.7412 -35.6961 -35.6960
   -35.6959 -35.6959 -35.6957 -35.6957 -35.6957 -35.6957 -35.6956 -35.6956
   -35.6956 -35.6956 -35.6956 -35.6956 -35.6954 -35.6954 -35.6953 -35.6952
   -35.6912 -35.6912 -35.6911 -35.6911 -35.6910 -35.6910 -35.6910 -35.6909
   -35.6908 -35.6908 -35.6908 -35.6908 -35.6908 -35.6908 -35.6908 -35.6907
   -35.6907 -35.6907 -35.6907 -35.6907 -35.6907 -35.6907 -35.6907 -35.6907
   -35.6907 -35.6907 -35.6906 -35.6906 -35.6905 -35.6905 -35.6905 -35.6905
   -35.6904 -35.6903 -35.6903 -35.6902 -35.1792 -35.1789 -35.1784 -35.1784
   -35.1782 -35.1781 -35.1779 -35.1778 -35.1777 -35.1776 -35.1775 -35.1775
   -35.1774 -35.1774 -35.1774 -35.1773 -35.1773 -35.1772 -35.1772 -35.1771
   -35.1771 -35.1771 -35.1770 -35.1770 -35.1769 -35.1769 -35.1768 -35.1768
   -35.1767 -35.1766 -35.1766 -35.1765 -35.1765 -35.1764 -35.1764 -35.1763
   -35.1762 -35.1761 -35.1760 -35.1760 -35.1758 -35.1757 -35.1757 -35.1757
   -35.1754 -35.1753 -35.1751 -35.1750 -35.1750 -35.1748 -35.1746 -35.1745
   -35.1739 -35.1736 -35.1720 -35.1715 -35.1715 -35.1712 -35.1712 -35.1710
   -35.1708 -35.1707 -35.1706 -35.1706 -35.1705 -35.1705 -35.1704 -35.1703
   -35.1703 -35.1702 -35.1702 -35.1700 -35.1700 -35.1700 -35.1698 -35.1697
   -35.1696 -35.1695 -35.1693 -35.1693 -35.1692 -35.1692 -35.1691 -35.1690
   -35.1688 -35.1688 -35.1687 -35.1687 -35.1686 -35.1685 -35.1685 -35.1684
   -35.1683 -35.1682 -35.1682 -35.1682 -35.1682 -35.1681 -35.1681 -35.1680
   -35.1680 -35.1678 -35.1677 -35.1676 -35.1673 -35.1672 -35.1670 -35.1663
   -14.2177 -14.2171 -14.2168 -14.2161 -14.2157 -14.2155 -14.2153 -14.2153
   -14.2151 -14.2149 -14.2147 -14.2146 -14.2144 -14.2144 -14.2142 -14.2140
   -14.2136 -14.2131 -14.2121 -14.2118 -14.2115 -14.2113 -14.2110 -14.2110
   -14.2108 -14.2106 -14.2104 -14.2103 -14.2103 -14.2102 -14.2101 -14.2100
   -14.2099 -14.2097 -14.2096 -14.2093 -14.2092 -14.2089 -14.2087 -14.2085
   -14.2085 -14.2083 -14.2083 -14.2082 -14.2081 -14.2080 -14.2079 -14.2079
   -14.2078 -14.2077 -14.2076 -14.2075 -14.2073 -14.2072 -14.2071 -14.2070
   -14.2067 -14.2065 -14.2063 -14.2060 -14.2057 -14.2055 -14.2050 -14.2048
   -14.2045 -14.2044 -14.2040 -14.2038 -14.2036 -14.2033 -14.2028 -14.2022
   -14.1899 -14.1885 -14.1882 -14.1879 -14.1877 -14.1874 -14.1873 -14.1870
   -14.1867 -14.1866 -14.1865 -14.1863 -14.1862 -14.1861 -14.1859 -14.1857
   -14.1856 -14.1856 -14.1854 -14.1854 -14.1852 -14.1851 -14.1844 -14.1844
   -14.1842 -14.1840 -14.1832 -14.1831 -14.1829 -14.1829 -14.1829 -14.1827
   -14.1825 -14.1823 -14.1820 -14.1808 -14.1744 -14.1741 -14.1736 -14.1735
   -14.1733 -14.1732 -14.1731 -14.1730 -14.1724 -14.1722 -14.1719 -14.1719
   -14.1717 -14.1716 -14.1714 -14.1713 -14.1710 -14.1709 -14.1709 -14.1708
   -14.1707 -14.1705 -14.1705 -14.1701 -14.1697 -14.1692 -14.1681 -14.1673
   -14.1672 -14.1670 -14.1670 -14.1668 -14.1668 -14.1666 -14.1664 -14.1663
   -14.1659 -14.1651 -14.1642 -14.1641 -14.1640 -14.1639 -14.1636 -14.1636
   -14.1634 -14.1630 -14.1621 -14.1621 -14.1620 -14.1617 -14.1609 -14.1608
   -14.1605 -14.1604 -14.1592 -14.1589 -14.1588 -14.1586 -14.1585 -14.1584
   -14.1581 -14.1580 -14.1579 -14.1578 -14.1577 -14.1575 -14.1573 -14.1571
   -14.1569 -14.1566 -14.1561 -14.1557  -3.5472  -3.5468  -3.3785  -3.3778
    -3.2747  -3.2742  -3.1313  -3.1307  -2.9442  -2.9432  -2.8967  -2.8962
    -2.8951  -2.8946  -2.8735  -2.8133  -2.8128  -2.8099  -2.8095  -2.7952
    -2.7830  -2.7826  -2.7052  -2.7046  -2.6469  -2.6400  -2.6396  -2.6362
    -2.6358  -2.6003  -2.5999  -2.5756  -2.5578  -2.5574  -2.5556  -2.5553
     2.9834   3.1462   3.2637   3.2638   3.3102   3.3224   3.3296   3.3298
     3.4258   3.4259   3.4784   3.4787   3.4849   3.6191   3.6195   3.6900
     3.6905   3.6918   3.6920   3.8175   3.8176   3.9695   4.0124   4.0130
     4.0702   4.0708   4.1145   4.1147   4.2046   4.2048   4.5109   4.5113
     4.6860   4.6862   4.7780   4.7782   4.8195   4.8196   4.8393   4.8694
     4.8697   4.8782   4.8782   4.9401   5.0464   5.0537   5.0541   5.1604
     5.1608   5.4186   5.4681   5.6245   5.6246   5.6341   5.6343   5.6748
     5.6749   5.7439   5.7579   5.7872   5.7874   5.9129   5.9132   5.9463
     5.9665   5.9830   6.0131   6.0332   6.0915   6.1841   6.1843   6.1978
     6.1978   6.2004   6.2009   6.2034   6.2037   6.3698   6.3701   6.3798
     6.3801   6.3897   6.3897   6.5379   6.5647   6.6647   6.7353   6.7592
     6.8096   6.8300   6.8330   6.8330   6.9131   7.0382   7.0385   7.0881
     7.0884   7.0916   7.0919   7.1695   7.2371   7.3056   7.3059   7.3443
     7.6372   7.6663   7.7073   7.7147   8.1103   8.2614   8.8837   8.8837
     8.9537   8.9537   9.0143   9.0144   9.1440   9.2012   9.2599   9.2601
     9.3138   9.3346   9.4985   9.4985   9.5049   9.6494   9.6632   9.6632
     9.6828   9.7317   9.7390   9.7390   9.9951  10.0622  10.1005  10.1006
    10.1213  10.1215  10.1240  10.1931  10.1932  10.2727  10.2730  10.4619
    10.4622  10.4829  10.4830  10.5847  10.5851  10.6291  10.6292  10.6365
    10.6377  10.6480  10.6481  10.7242  10.7244  10.7556  10.7561  10.7571
    10.7573  10.8788  10.8826  10.9121  10.9124  11.0195  11.0219  11.0220
    11.0300  11.0467  11.0946  11.1421  11.1421  11.2231  11.3119  11.3537
    11.3539  11.3668  11.4251  11.4562  11.4563  11.4572  11.4574  11.4934
    11.4936  11.5195  11.5590  11.5592  11.5866  11.6682  11.7477  11.7848
    11.7936  11.9811  11.9971  12.0198  12.0201  12.1004  12.2393  12.2393
    12.2957  12.2971  12.2972  12.3262  12.3264  12.3475  12.3475  12.3721
    12.3722  12.3902  12.4336  12.5251  12.5307  12.5863  12.6546  12.7084

     occupation numbers 
     1.0000   1.0000   1.0000   1.0000   1.0000   1.0000   1.0000   1.0000
     1.0000   1.0000   1.0000   1.0000   1.0000   1.0000   1.0000   1.0000
     1.0000   1.0000   1.0000   1.0000   1.0000   1.0000   1.0000   1.0000
     1.0000   1.0000   1.0000   1.0000   1.0000   1.0000   1.0000   1.0000
     1.0000   1.0000   1.0000   1.0000   1.0000   1.0000   1.0000   1.0000
     1.0000   1.0000   1.0000   1.0000   1.0000   1.0000   1.0000   1.0000
     1.0000   1.0000   1.0000   1.0000   1.0000   1.0000   1.0000   1.0000
     1.0000   1.0000   1.0000   1.0000   1.0000   1.0000   1.0000   1.0000
     1.0000   1.0000   1.0000   1.0000   1.0000   1.0000   1.0000   1.0000
     1.0000   1.0000   1.0000   1.0000   1.0000   1.0000   1.0000   1.0000
     1.0000   1.0000   1.0000   1.0000   1.0000   1.0000   1.0000   1.0000
     1.0000   1.0000   1.0000   1.0000   1.0000   1.0000   1.0000   1.0000
     1.0000   1.0000   1.0000   1.0000   1.0000   1.0000   1.0000   1.0000
     1.0000   1.0000   1.0000   1.0000   1.0000   1.0000   1.0000   1.0000
     1.0000   1.0000   1.0000   1.0000   1.0000   1.0000   1.0000   1.0000
     1.0000   1.0000   1.0000   1.0000   1.0000   1.0000   1.0000   1.0000
     1.0000   1.0000   1.0000   1.0000   1.0000   1.0000   1.0000   1.0000
     1.0000   1.0000   1.0000   1.0000   1.0000   1.0000   1.0000   1.0000
     1.0000   1.0000   1.0000   1.0000   1.0000   1.0000   1.0000   1.0000
     1.0000   1.0000   1.0000   1.0000   1.0000   1.0000   1.0000   1.0000
     1.0000   1.0000   1.0000   1.0000   1.0000   1.0000   1.0000   1.0000
     1.0000   1.0000   1.0000   1.0000   1.0000   1.0000   1.0000   1.0000
     1.0000   1.0000   1.0000   1.0000   1.0000   1.0000   1.0000   1.0000
     1.0000   1.0000   1.0000   1.0000   1.0000   1.0000   1.0000   1.0000
     1.0000   1.0000   1.0000   1.0000   1.0000   1.0000   1.0000   1.0000
     1.0000   1.0000   1.0000   1.0000   1.0000   1.0000   1.0000   1.0000
     1.0000   1.0000   1.0000   1.0000   1.0000   1.0000   1.0000   1.0000
     1.0000   1.0000   1.0000   1.0000   1.0000   1.0000   1.0000   1.0000
     1.0000   1.0000   1.0000   1.0000   1.0000   1.0000   1.0000   1.0000
     1.0000   1.0000   1.0000   1.0000   1.0000   1.0000   1.0000   1.0000
     1.0000   1.0000   1.0000   1.0000   1.0000   1.0000   1.0000   1.0000
     1.0000   1.0000   1.0000   1.0000   1.0000   1.0000   1.0000   1.0000
     1.0000   1.0000   1.0000   1.0000   1.0000   1.0000   1.0000   1.0000
     1.0000   1.0000   1.0000   1.0000   1.0000   1.0000   1.0000   1.0000
     1.0000   1.0000   1.0000   1.0000   1.0000   1.0000   1.0000   1.0000
     1.0000   1.0000   1.0000   1.0000   1.0000   1.0000   1.0000   1.0000
     1.0000   1.0000   1.0000   1.0000   1.0000   1.0000   1.0000   1.0000
     1.0000   1.0000   1.0000   1.0000   1.0000   1.0000   1.0000   1.0000
     1.0000   1.0000   1.0000   1.0000   1.0000   1.0000   1.0000   1.0000
     1.0000   1.0000   1.0000   1.0000   1.0000   1.0000   1.0000   1.0000
     1.0000   1.0000   1.0000   1.0000   1.0000   1.0000   1.0000   1.0000
     1.0000   1.0000   1.0000   1.0000   1.0000   1.0000   1.0000   1.0000
     1.0000   1.0000   1.0000   1.0000   1.0000   1.0000   1.0000   1.0000
     1.0000   1.0000   1.0000   1.0000   1.0000   1.0000   1.0000   1.0000
     1.0000   1.0000   1.0000   1.0000   1.0000   1.0000   1.0000   1.0000
     1.0000   1.0000   1.0000   1.0000   1.0000   1.0000   1.0000   1.0000
     1.0000   1.0000   1.0000   1.0000   1.0000   1.0000   1.0000   1.0000
     1.0000   1.0000   1.0000   1.0000   1.0000   1.0000   1.0000   1.0000
     1.0000   1.0000   1.0000   1.0000   1.0000   1.0000   1.0000   1.0000
     1.0000   1.0000   1.0000   1.0000   1.0000   1.0000   1.0000   1.0000
     1.0000   1.0000   1.0000   1.0000   1.0000   1.0000   1.0000   1.0000
     1.0000   1.0000   1.0000   1.0000   1.0000   1.0000   1.0000   1.0000
     1.0000   1.0000   1.0000   1.0000   1.0000   1.0000   1.0000   1.0000
     1.0000   1.0000   1.0000   1.0000   1.0000   1.0000   1.0000   1.0000
     1.0000   1.0000   1.0000   1.0000   1.0000   1.0000   1.0000   1.0000
     1.0000   1.0000   1.0000   1.0000   1.0000   1.0000   1.0000   1.0000
     1.0000   1.0000   1.0000   1.0000   1.0000   1.0000   1.0000   1.0000
     1.0000   1.0000   1.0000   1.0000   1.0000   1.0000   1.0000   1.0000
     1.0000   1.0000   1.0000   1.0000   1.0000   1.0000   1.0000   1.0000
     1.0000   1.0000   1.0000   1.0000   1.0000   1.0000   1.0000   1.0000
     1.0000   1.0000   1.0000   1.0000   1.0000   1.0000   1.0000   1.0000
     1.0000   1.0000   1.0000   1.0000   1.0000   1.0000   1.0000   1.0000
     1.0000   1.0000   1.0000   1.0000   1.0000   1.0000   1.0000   1.0000
     1.0000   1.0000   1.0000   1.0000   1.0000   1.0000   1.0000   1.0000
     1.0000   1.0000   1.0000   1.0000   1.0000   1.0000   1.0000   1.0000
     1.0000   1.0000   1.0000   1.0000   1.0000   1.0000   1.0000   1.0000
     1.0000   1.0000   1.0000   1.0000   1.0000   1.0000   1.0000   1.0000
     1.0011   1.0028   1.0083   1.0098  -0.0221  -0.0060  -0.0000  -0.0000
    -0.0000  -0.0000  -0.0000  -0.0000  -0.0000  -0.0000  -0.0000  -0.0000
    -0.0000  -0.0000  -0.0000  -0.0000  -0.0000  -0.0000  -0.0000  -0.0000
    -0.0000  -0.0000  -0.0000  -0.0000  -0.0000  -0.0000  -0.0000  -0.0000
    -0.0000  -0.0000  -0.0000  -0.0000  -0.0000  -0.0000  -0.0000  -0.0000
    -0.0000  -0.0000  -0.0000  -0.0000  -0.0000  -0.0000  -0.0000  -0.0000
    -0.0000  -0.0000  -0.0000  -0.0000  -0.0000  -0.0000  -0.0000  -0.0000
    -0.0000  -0.0000  -0.0000  -0.0000  -0.0000  -0.0000  -0.0000  -0.0000
    -0.0000  -0.0000  -0.0000  -0.0000  -0.0000  -0.0000  -0.0000  -0.0000
    -0.0000  -0.0000  -0.0000  -0.0000  -0.0000  -0.0000  -0.0000  -0.0000
    -0.0000  -0.0000  -0.0000  -0.0000  -0.0000  -0.0000  -0.0000  -0.0000
    -0.0000  -0.0000  -0.0000  -0.0000  -0.0000  -0.0000  -0.0000  -0.0000
    -0.0000  -0.0000  -0.0000  -0.0000  -0.0000  -0.0000  -0.0000  -0.0000
    -0.0000  -0.0000  -0.0000  -0.0000  -0.0000  -0.0000  -0.0000  -0.0000

          k = 0.0000-0.5774-0.4746 (554528 PWs)   bands (ev):

   -68.2851 -68.2849 -68.2848 -68.2848 -68.2846 -68.2846 -68.2846 -68.2846
   -68.2846 -68.2846 -68.2846 -68.2846 -68.2846 -68.2845 -68.2844 -68.2844
   -68.2842 -68.2841 -67.7467 -67.7456 -67.7455 -67.7452 -67.7448 -67.7446
   -67.7446 -67.7445 -67.7444 -67.7444 -67.7443 -67.7443 -67.7442 -67.7441
   -67.7441 -67.7441 -67.7441 -67.7440 -67.7439 -67.7438 -67.7438 -67.7438
   -67.7438 -67.7437 -67.7436 -67.7436 -67.7435 -67.7435 -67.7434 -67.7434
   -67.7433 -67.7431 -67.7428 -67.7424 -67.7423 -67.7412 -35.6961 -35.6960
   -35.6959 -35.6959 -35.6957 -35.6957 -35.6957 -35.6957 -35.6956 -35.6956
   -35.6956 -35.6956 -35.6956 -35.6956 -35.6954 -35.6954 -35.6953 -35.6952
   -35.6912 -35.6912 -35.6911 -35.6911 -35.6910 -35.6910 -35.6910 -35.6909
   -35.6908 -35.6908 -35.6908 -35.6908 -35.6908 -35.6908 -35.6908 -35.6907
   -35.6907 -35.6907 -35.6907 -35.6907 -35.6907 -35.6907 -35.6907 -35.6907
   -35.6907 -35.6907 -35.6906 -35.6906 -35.6905 -35.6905 -35.6905 -35.6905
   -35.6904 -35.6903 -35.6903 -35.6902 -35.1792 -35.1789 -35.1784 -35.1784
   -35.1782 -35.1781 -35.1779 -35.1778 -35.1777 -35.1776 -35.1775 -35.1775
   -35.1774 -35.1774 -35.1774 -35.1773 -35.1773 -35.1772 -35.1772 -35.1771
   -35.1771 -35.1771 -35.1770 -35.1770 -35.1769 -35.1769 -35.1768 -35.1768
   -35.1767 -35.1766 -35.1766 -35.1765 -35.1765 -35.1764 -35.1764 -35.1763
   -35.1762 -35.1761 -35.1760 -35.1760 -35.1758 -35.1757 -35.1757 -35.1757
   -35.1754 -35.1753 -35.1751 -35.1750 -35.1750 -35.1748 -35.1746 -35.1745
   -35.1739 -35.1736 -35.1720 -35.1715 -35.1715 -35.1712 -35.1712 -35.1710
   -35.1708 -35.1707 -35.1706 -35.1706 -35.1705 -35.1705 -35.1704 -35.1703
   -35.1703 -35.1702 -35.1702 -35.1700 -35.1700 -35.1700 -35.1698 -35.1697
   -35.1696 -35.1695 -35.1693 -35.1693 -35.1692 -35.1692 -35.1691 -35.1690
   -35.1688 -35.1688 -35.1687 -35.1687 -35.1686 -35.1685 -35.1685 -35.1684
   -35.1683 -35.1682 -35.1682 -35.1682 -35.1682 -35.1681 -35.1681 -35.1680
   -35.1680 -35.1678 -35.1677 -35.1676 -35.1673 -35.1672 -35.1670 -35.1663
   -14.2176 -14.2170 -14.2170 -14.2161 -14.2156 -14.2156 -14.2153 -14.2152
   -14.2152 -14.2150 -14.2148 -14.2146 -14.2145 -14.2144 -14.2143 -14.2142
   -14.2133 -14.2132 -14.2121 -14.2119 -14.2114 -14.2113 -14.2109 -14.2108
   -14.2106 -14.2106 -14.2105 -14.2104 -14.2103 -14.2102 -14.2099 -14.2099
   -14.2098 -14.2097 -14.2096 -14.2094 -14.2092 -14.2091 -14.2088 -14.2086
   -14.2084 -14.2083 -14.2082 -14.2082 -14.2081 -14.2081 -14.2080 -14.2080
   -14.2079 -14.2079 -14.2078 -14.2078 -14.2075 -14.2073 -14.2072 -14.2070
   -14.2066 -14.2066 -14.2063 -14.2059 -14.2056 -14.2054 -14.2046 -14.2045
   -14.2044 -14.2043 -14.2041 -14.2039 -14.2036 -14.2034 -14.2029 -14.2023
   -14.1899 -14.1884 -14.1882 -14.1880 -14.1876 -14.1873 -14.1871 -14.1870
   -14.1869 -14.1868 -14.1866 -14.1861 -14.1860 -14.1860 -14.1859 -14.1859
   -14.1858 -14.1857 -14.1855 -14.1855 -14.1853 -14.1852 -14.1844 -14.1843
   -14.1842 -14.1840 -14.1832 -14.1831 -14.1829 -14.1829 -14.1828 -14.1827
   -14.1824 -14.1822 -14.1821 -14.1808 -14.1744 -14.1741 -14.1736 -14.1735
   -14.1732 -14.1732 -14.1731 -14.1730 -14.1723 -14.1722 -14.1720 -14.1720
   -14.1715 -14.1714 -14.1712 -14.1712 -14.1711 -14.1711 -14.1710 -14.1709
   -14.1707 -14.1706 -14.1705 -14.1702 -14.1695 -14.1694 -14.1680 -14.1672
   -14.1672 -14.1671 -14.1671 -14.1668 -14.1666 -14.1665 -14.1665 -14.1663
   -14.1658 -14.1651 -14.1644 -14.1642 -14.1641 -14.1639 -14.1635 -14.1634
   -14.1633 -14.1630 -14.1621 -14.1621 -14.1620 -14.1617 -14.1610 -14.1609
   -14.1605 -14.1604 -14.1591 -14.1590 -14.1587 -14.1586 -14.1583 -14.1582
   -14.1581 -14.1580 -14.1578 -14.1577 -14.1576 -14.1576 -14.1574 -14.1573
   -14.1570 -14.1564 -14.1562 -14.1559  -3.4777  -3.4775  -3.4769  -3.4766
    -3.2156  -3.2151  -3.2147  -3.2142  -2.8623  -2.8617  -2.8615  -2.8613
    -2.8591  -2.8588  -2.8587  -2.8581  -2.8410  -2.8403  -2.8110  -2.8106
    -2.8097  -2.8095  -2.6800  -2.6796  -2.6792  -2.6788  -2.6053  -2.6046
    -2.5929  -2.5924  -2.5922  -2.5919  -2.5891  -2.5888  -2.5886  -2.5881
     3.0443   3.0446   3.3185   3.3187   3.3190   3.3191   3.3961   3.3967
     3.3968   3.3973   3.5758   3.5760   3.6020   3.6022   3.7188   3.7191
     3.7193   3.7196   3.7256   3.7258   3.8095   3.8102   3.8103   3.8110
     3.8949   3.8953   3.8954   3.8958   4.3933   4.3936   4.3942   4.3946
     4.7766   4.7770   4.7773   4.7776   4.8175   4.8177   4.8177   4.8179
     5.1584   5.1586   5.1590   5.1592   5.2397   5.2402   5.3063   5.3064
     5.4484   5.4485   5.5436   5.5439   5.5443   5.5446   5.5493   5.5497
     5.5498   5.5502   5.7819   5.7820   5.7908   5.7911   5.7914   5.7917
     5.8509   5.8517   5.8988   5.8989   5.9369   5.9370   5.9371   5.9372
     5.9588   5.9589   5.9590   5.9592   6.5060   6.5064   6.6135   6.6135
     6.6143   6.6143   6.6211   6.6216   6.6736   6.6741   6.7991   6.7993
     6.7994   6.7997   6.8193   6.8195   6.8197   6.8199   6.9365   6.9374
     7.2862   7.2862   7.3786   7.3789   7.3808   7.3810   7.3811   7.3816
     7.4504   7.4510   7.5588   7.5595   8.1258   8.1260   9.0312   9.0314
     9.0314   9.0316   9.0731   9.0744   9.1605   9.1610   9.2619   9.2621
     9.2622   9.2625   9.4777   9.4777   9.4779   9.4779   9.5652   9.5656
     9.9641   9.9647  10.0611  10.0613  10.1398  10.1400  10.1401  10.1403
    10.1755  10.1757  10.1758  10.1760  10.2083  10.2083  10.2086  10.2086
    10.2803  10.2805  10.2805  10.2808  10.4242  10.4244  10.4246  10.4247
    10.6648  10.6651  10.6652  10.6656  10.6861  10.6862  10.7729  10.7729
    10.9390  10.9393  10.9394  10.9397  11.1130  11.1133  11.1260  11.1264
    11.1267  11.1271  11.1981  11.1983  11.2371  11.2373  11.3356  11.3357
    11.4376  11.4386  11.4686  11.4687  11.4691  11.4691  11.4742  11.4751
    11.4788  11.4791  11.4792  11.4794  11.6199  11.6203  11.7424  11.7425
    11.7740  11.7744  11.8556  11.8558  11.8558  11.8560  12.0506  12.0507
    12.0575  12.0579  12.0580  12.0584  12.1870  12.1872  12.1874  12.1876
    12.4679  12.4681  12.6122  12.6124  12.7251  12.7254  12.7422  12.7426

     occupation numbers 
     1.0000   1.0000   1.0000   1.0000   1.0000   1.0000   1.0000   1.0000
     1.0000   1.0000   1.0000   1.0000   1.0000   1.0000   1.0000   1.0000
     1.0000   1.0000   1.0000   1.0000   1.0000   1.0000   1.0000   1.0000
     1.0000   1.0000   1.0000   1.0000   1.0000   1.0000   1.0000   1.0000
     1.0000   1.0000   1.0000   1.0000   1.0000   1.0000   1.0000   1.0000
     1.0000   1.0000   1.0000   1.0000   1.0000   1.0000   1.0000   1.0000
     1.0000   1.0000   1.0000   1.0000   1.0000   1.0000   1.0000   1.0000
     1.0000   1.0000   1.0000   1.0000   1.0000   1.0000   1.0000   1.0000
     1.0000   1.0000   1.0000   1.0000   1.0000   1.0000   1.0000   1.0000
     1.0000   1.0000   1.0000   1.0000   1.0000   1.0000   1.0000   1.0000
     1.0000   1.0000   1.0000   1.0000   1.0000   1.0000   1.0000   1.0000
     1.0000   1.0000   1.0000   1.0000   1.0000   1.0000   1.0000   1.0000
     1.0000   1.0000   1.0000   1.0000   1.0000   1.0000   1.0000   1.0000
     1.0000   1.0000   1.0000   1.0000   1.0000   1.0000   1.0000   1.0000
     1.0000   1.0000   1.0000   1.0000   1.0000   1.0000   1.0000   1.0000
     1.0000   1.0000   1.0000   1.0000   1.0000   1.0000   1.0000   1.0000
     1.0000   1.0000   1.0000   1.0000   1.0000   1.0000   1.0000   1.0000
     1.0000   1.0000   1.0000   1.0000   1.0000   1.0000   1.0000   1.0000
     1.0000   1.0000   1.0000   1.0000   1.0000   1.0000   1.0000   1.0000
     1.0000   1.0000   1.0000   1.0000   1.0000   1.0000   1.0000   1.0000
     1.0000   1.0000   1.0000   1.0000   1.0000   1.0000   1.0000   1.0000
     1.0000   1.0000   1.0000   1.0000   1.0000   1.0000   1.0000   1.0000
     1.0000   1.0000   1.0000   1.0000   1.0000   1.0000   1.0000   1.0000
     1.0000   1.0000   1.0000   1.0000   1.0000   1.0000   1.0000   1.0000
     1.0000   1.0000   1.0000   1.0000   1.0000   1.0000   1.0000   1.0000
     1.0000   1.0000   1.0000   1.0000   1.0000   1.0000   1.0000   1.0000
     1.0000   1.0000   1.0000   1.0000   1.0000   1.0000   1.0000   1.0000
     1.0000   1.0000   1.0000   1.0000   1.0000   1.0000   1.0000   1.0000
     1.0000   1.0000   1.0000   1.0000   1.0000   1.0000   1.0000   1.0000
     1.0000   1.0000   1.0000   1.0000   1.0000   1.0000   1.0000   1.0000
     1.0000   1.0000   1.0000   1.0000   1.0000   1.0000   1.0000   1.0000
     1.0000   1.0000   1.0000   1.0000   1.0000   1.0000   1.0000   1.0000
     1.0000   1.0000   1.0000   1.0000   1.0000   1.0000   1.0000   1.0000
     1.0000   1.0000   1.0000   1.0000   1.0000   1.0000   1.0000   1.0000
     1.0000   1.0000   1.0000   1.0000   1.0000   1.0000   1.0000   1.0000
     1.0000   1.0000   1.0000   1.0000   1.0000   1.0000   1.0000   1.0000
     1.0000   1.0000   1.0000   1.0000   1.0000   1.0000   1.0000   1.0000
     1.0000   1.0000   1.0000   1.0000   1.0000   1.0000   1.0000   1.0000
     1.0000   1.0000   1.0000   1.0000   1.0000   1.0000   1.0000   1.0000
     1.0000   1.0000   1.0000   1.0000   1.0000   1.0000   1.0000   1.0000
     1.0000   1.0000   1.0000   1.0000   1.0000   1.0000   1.0000   1.0000
     1.0000   1.0000   1.0000   1.0000   1.0000   1.0000   1.0000   1.0000
     1.0000   1.0000   1.0000   1.0000   1.0000   1.0000   1.0000   1.0000
     1.0000   1.0000   1.0000   1.0000   1.0000   1.0000   1.0000   1.0000
     1.0000   1.0000   1.0000   1.0000   1.0000   1.0000   1.0000   1.0000
     1.0000   1.0000   1.0000   1.0000   1.0000   1.0000   1.0000   1.0000
     1.0000   1.0000   1.0000   1.0000   1.0000   1.0000   1.0000   1.0000
     1.0000   1.0000   1.0000   1.0000   1.0000   1.0000   1.0000   1.0000
     1.0000   1.0000   1.0000   1.0000   1.0000   1.0000   1.0000   1.0000
     1.0000   1.0000   1.0000   1.0000   1.0000   1.0000   1.0000   1.0000
     1.0000   1.0000   1.0000   1.0000   1.0000   1.0000   1.0000   1.0000
     1.0000   1.0000   1.0000   1.0000   1.0000   1.0000   1.0000   1.0000
     1.0000   1.0000   1.0000   1.0000   1.0000   1.0000   1.0000   1.0000
     1.0000   1.0000   1.0000   1.0000   1.0000   1.0000   1.0000   1.0000
     1.0000   1.0000   1.0000   1.0000   1.0000   1.0000   1.0000   1.0000
     1.0000   1.0000   1.0000   1.0000   1.0000   1.0000   1.0000   1.0000
     1.0000   1.0000   1.0000   1.0000   1.0000   1.0000   1.0000   1.0000
     1.0000   1.0000   1.0000   1.0000   1.0000   1.0000   1.0000   1.0000
     1.0000   1.0000   1.0000   1.0000   1.0000   1.0000   1.0000   1.0000
     1.0000   1.0000   1.0000   1.0000   1.0000   1.0000   1.0000   1.0000
     1.0000   1.0000   1.0000   1.0000   1.0000   1.0000   1.0000   1.0000
     1.0000   1.0000   1.0000   1.0000   1.0000   1.0000   1.0000   1.0000
     1.0000   1.0000   1.0000   1.0000   1.0000   1.0000   1.0000   1.0000
     1.0000   1.0000   1.0000   1.0000   1.0000   1.0000   1.0000   1.0000
     1.0000   1.0000   1.0000   1.0000   1.0000   1.0000   1.0000   1.0000
     1.0000   1.0000   1.0000   1.0000   1.0000   1.0000   1.0000   1.0000
     1.0000   1.0000   1.0000   1.0000   1.0000   1.0000   1.0000   1.0000
     1.0000   1.0000   1.0001   1.0001  -0.0320  -0.0321  -0.0000  -0.0000
    -0.0000  -0.0000  -0.0000  -0.0000  -0.0000  -0.0000  -0.0000  -0.0000
    -0.0000  -0.0000  -0.0000  -0.0000  -0.0000  -0.0000  -0.0000  -0.0000
    -0.0000  -0.0000  -0.0000  -0.0000  -0.0000  -0.0000  -0.0000  -0.0000
    -0.0000  -0.0000  -0.0000  -0.0000  -0.0000  -0.0000  -0.0000  -0.0000
    -0.0000  -0.0000  -0.0000  -0.0000  -0.0000  -0.0000  -0.0000  -0.0000
    -0.0000  -0.0000  -0.0000  -0.0000  -0.0000  -0.0000  -0.0000  -0.0000
    -0.0000  -0.0000  -0.0000  -0.0000  -0.0000  -0.0000  -0.0000  -0.0000
    -0.0000  -0.0000  -0.0000  -0.0000  -0.0000  -0.0000  -0.0000  -0.0000
    -0.0000  -0.0000  -0.0000  -0.0000  -0.0000  -0.0000  -0.0000  -0.0000
    -0.0000  -0.0000  -0.0000  -0.0000  -0.0000  -0.0000  -0.0000  -0.0000
    -0.0000  -0.0000  -0.0000  -0.0000  -0.0000  -0.0000  -0.0000  -0.0000
    -0.0000  -0.0000  -0.0000  -0.0000  -0.0000  -0.0000  -0.0000  -0.0000
    -0.0000  -0.0000  -0.0000  -0.0000  -0.0000  -0.0000  -0.0000  -0.0000

          k = 0.2500 0.4330 0.0000 (554595 PWs)   bands (ev):

   -68.2851 -68.2849 -68.2848 -68.2848 -68.2846 -68.2846 -68.2846 -68.2846
   -68.2846 -68.2846 -68.2846 -68.2846 -68.2846 -68.2845 -68.2844 -68.2844
   -68.2842 -68.2841 -67.7467 -67.7456 -67.7455 -67.7452 -67.7448 -67.7446
   -67.7446 -67.7445 -67.7444 -67.7444 -67.7443 -67.7443 -67.7442 -67.7441
   -67.7441 -67.7441 -67.7441 -67.7440 -67.7439 -67.7439 -67.7438 -67.7438
   -67.7438 -67.7437 -67.7436 -67.7436 -67.7435 -67.7435 -67.7434 -67.7433
   -67.7433 -67.7431 -67.7428 -67.7424 -67.7423 -67.7412 -35.6961 -35.6960
   -35.6959 -35.6959 -35.6957 -35.6957 -35.6957 -35.6957 -35.6956 -35.6956
   -35.6956 -35.6956 -35.6956 -35.6956 -35.6954 -35.6954 -35.6953 -35.6952
   -35.6912 -35.6912 -35.6911 -35.6911 -35.6910 -35.6910 -35.6910 -35.6909
   -35.6908 -35.6908 -35.6908 -35.6908 -35.6908 -35.6908 -35.6907 -35.6907
   -35.6907 -35.6907 -35.6907 -35.6907 -35.6907 -35.6907 -35.6907 -35.6907
   -35.6907 -35.6907 -35.6906 -35.6906 -35.6905 -35.6905 -35.6905 -35.6905
   -35.6904 -35.6903 -35.6903 -35.6902 -35.1792 -35.1789 -35.1784 -35.1783
   -35.1782 -35.1781 -35.1779 -35.1778 -35.1777 -35.1776 -35.1775 -35.1775
   -35.1774 -35.1774 -35.1773 -35.1773 -35.1773 -35.1772 -35.1772 -35.1772
   -35.1771 -35.1771 -35.1771 -35.1770 -35.1770 -35.1769 -35.1768 -35.1768
   -35.1767 -35.1766 -35.1766 -35.1765 -35.1764 -35.1764 -35.1764 -35.1763
   -35.1762 -35.1761 -35.1761 -35.1760 -35.1759 -35.1758 -35.1756 -35.1754
   -35.1753 -35.1753 -35.1752 -35.1752 -35.1750 -35.1748 -35.1747 -35.1742
   -35.1741 -35.1735 -35.1720 -35.1715 -35.1714 -35.1712 -35.1711 -35.1710
   -35.1709 -35.1707 -35.1706 -35.1706 -35.1706 -35.1705 -35.1704 -35.1704
   -35.1704 -35.1702 -35.1701 -35.1700 -35.1700 -35.1698 -35.1697 -35.1697
   -35.1695 -35.1695 -35.1694 -35.1693 -35.1693 -35.1692 -35.1692 -35.1690
   -35.1689 -35.1688 -35.1687 -35.1687 -35.1686 -35.1685 -35.1685 -35.1684
   -35.1683 -35.1682 -35.1682 -35.1682 -35.1682 -35.1681 -35.1681 -35.1680
   -35.1680 -35.1678 -35.1677 -35.1676 -35.1673 -35.1672 -35.1669 -35.1663
   -14.2176 -14.2174 -14.2167 -14.2163 -14.2161 -14.2157 -14.2153 -14.2151
   -14.2150 -14.2148 -14.2147 -14.2146 -14.2145 -14.2141 -14.2140 -14.2139
   -14.2137 -14.2129 -14.2123 -14.2117 -14.2116 -14.2113 -14.2111 -14.2110
   -14.2109 -14.2109 -14.2108 -14.2105 -14.2104 -14.2103 -14.2102 -14.2102
   -14.2099 -14.2095 -14.2094 -14.2094 -14.2091 -14.2088 -14.2087 -14.2086
   -14.2084 -14.2083 -14.2082 -14.2081 -14.2081 -14.2080 -14.2078 -14.2077
   -14.2076 -14.2075 -14.2074 -14.2074 -14.2073 -14.2072 -14.2071 -14.2070
   -14.2068 -14.2066 -14.2063 -14.2061 -14.2059 -14.2056 -14.2052 -14.2049
   -14.2047 -14.2045 -14.2043 -14.2040 -14.2035 -14.2030 -14.2026 -14.2021
   -14.1900 -14.1885 -14.1882 -14.1879 -14.1876 -14.1874 -14.1873 -14.1871
   -14.1870 -14.1867 -14.1864 -14.1862 -14.1861 -14.1861 -14.1859 -14.1858
   -14.1856 -14.1855 -14.1853 -14.1851 -14.1850 -14.1849 -14.1847 -14.1844
   -14.1838 -14.1837 -14.1836 -14.1835 -14.1833 -14.1829 -14.1827 -14.1826
   -14.1824 -14.1822 -14.1821 -14.1808 -14.1744 -14.1741 -14.1736 -14.1735
   -14.1731 -14.1730 -14.1728 -14.1726 -14.1724 -14.1724 -14.1723 -14.1721
   -14.1721 -14.1719 -14.1718 -14.1716 -14.1712 -14.1710 -14.1708 -14.1706
   -14.1704 -14.1703 -14.1697 -14.1695 -14.1691 -14.1690 -14.1686 -14.1685
   -14.1675 -14.1673 -14.1672 -14.1668 -14.1666 -14.1665 -14.1661 -14.1653
   -14.1651 -14.1651 -14.1651 -14.1648 -14.1646 -14.1641 -14.1633 -14.1630
   -14.1629 -14.1628 -14.1627 -14.1624 -14.1613 -14.1613 -14.1612 -14.1610
   -14.1604 -14.1603 -14.1594 -14.1590 -14.1589 -14.1587 -14.1586 -14.1584
   -14.1582 -14.1581 -14.1580 -14.1578 -14.1576 -14.1574 -14.1572 -14.1570
   -14.1568 -14.1565 -14.1560 -14.1557  -3.6094  -3.4625  -3.4620  -3.3470
    -3.2183  -3.2178  -3.0967  -3.0966  -3.0485  -2.9490  -2.9486  -2.9171
    -2.9168  -2.9153  -2.8935  -2.8930  -2.8140  -2.7844  -2.7705  -2.7700
    -2.7404  -2.7403  -2.7190  -2.6816  -2.6734  -2.6729  -2.6669  -2.6498
    -2.6228  -2.6224  -2.5702  -2.5583  -2.5577  -2.5383  -2.5369  -2.5367
     3.0540   3.0541   3.1585   3.1658   3.2830   3.2831   3.3589   3.4009
     3.4014   3.4506   3.4507   3.5122   3.5147   3.5620   3.5898   3.5902
     3.7039   3.7484   3.7492   3.8837   3.8843   4.1426   4.1427   4.1546
     4.1995   4.1998   4.2190   4.2191   4.2723   4.3765   4.3766   4.3918
     4.3920   4.4289   4.5309   4.6433   4.6437   4.6665   4.6995   4.8175
     4.8647   4.8672   4.9610   4.9610   5.0146   5.2473   5.2944   5.2948
     5.3510   5.3512   5.4145   5.4291   5.4298   5.4884   5.4886   5.5147
     5.5151   5.7379   5.7383   5.7873   5.8294   5.9120   5.9125   5.9784
     6.0207   6.0212   6.0485   6.1500   6.1500   6.2230   6.2648   6.2652
     6.2720   6.4008   6.4008   6.5280   6.5365   6.5372   6.5614   6.5616
     6.5663   6.5778   6.5779   6.6215   6.6216   6.6570   6.6573   6.6718
     6.6719   6.7693   6.7825   6.7830   6.8161   6.8163   6.8393   6.8510
     6.8844   6.9221   6.9227   6.9568   7.0187   7.0909   7.4053   7.4055
     7.5791   7.5796   7.6051   7.9041   8.6470   8.6470   8.6475   8.6478
     8.7037   8.7489   9.1214   9.1606   9.1610   9.2496   9.2498   9.3420
     9.4157   9.4157   9.4273   9.4273   9.4933   9.5404   9.6215   9.6219
     9.8074   9.8075   9.8344   9.8524   9.8785   9.9948  10.0285  10.0287
    10.1158  10.1161  10.1197  10.1198  10.1412  10.1415  10.2144  10.2623
    10.2627  10.2921  10.2923  10.3619  10.3700  10.4089  10.4089  10.5883
    10.5886  10.7089  10.8411  10.8412  10.8565  10.8724  10.9064  10.9675
    10.9678  10.9919  10.9952  10.9954  11.0717  11.0723  11.0920  11.1399
    11.1400  11.1866  11.1967  11.2175  11.2389  11.2698  11.2700  11.2928
    11.2931  11.3425  11.3427  11.3435  11.3438  11.3755  11.3757  11.5728
    11.6089  11.8017  11.9139  11.9142  11.9174  11.9176  11.9592  11.9783
    11.9811  11.9893  12.0014  12.0020  12.0721  12.0724  12.0959  12.0962
    12.1042  12.1045  12.1136  12.1590  12.3160  12.3811  12.3844  12.4208
    12.4209  12.4436  12.5110  12.5315  12.5320  12.6119  12.6123  12.6623

     occupation numbers 
     1.0000   1.0000   1.0000   1.0000   1.0000   1.0000   1.0000   1.0000
     1.0000   1.0000   1.0000   1.0000   1.0000   1.0000   1.0000   1.0000
     1.0000   1.0000   1.0000   1.0000   1.0000   1.0000   1.0000   1.0000
     1.0000   1.0000   1.0000   1.0000   1.0000   1.0000   1.0000   1.0000
     1.0000   1.0000   1.0000   1.0000   1.0000   1.0000   1.0000   1.0000
     1.0000   1.0000   1.0000   1.0000   1.0000   1.0000   1.0000   1.0000
     1.0000   1.0000   1.0000   1.0000   1.0000   1.0000   1.0000   1.0000
     1.0000   1.0000   1.0000   1.0000   1.0000   1.0000   1.0000   1.0000
     1.0000   1.0000   1.0000   1.0000   1.0000   1.0000   1.0000   1.0000
     1.0000   1.0000   1.0000   1.0000   1.0000   1.0000   1.0000   1.0000
     1.0000   1.0000   1.0000   1.0000   1.0000   1.0000   1.0000   1.0000
     1.0000   1.0000   1.0000   1.0000   1.0000   1.0000   1.0000   1.0000
     1.0000   1.0000   1.0000   1.0000   1.0000   1.0000   1.0000   1.0000
     1.0000   1.0000   1.0000   1.0000   1.0000   1.0000   1.0000   1.0000
     1.0000   1.0000   1.0000   1.0000   1.0000   1.0000   1.0000   1.0000
     1.0000   1.0000   1.0000   1.0000   1.0000   1.0000   1.0000   1.0000
     1.0000   1.0000   1.0000   1.0000   1.0000   1.0000   1.0000   1.0000
     1.0000   1.0000   1.0000   1.0000   1.0000   1.0000   1.0000   1.0000
     1.0000   1.0000   1.0000   1.0000   1.0000   1.0000   1.0000   1.0000
     1.0000   1.0000   1.0000   1.0000   1.0000   1.0000   1.0000   1.0000
     1.0000   1.0000   1.0000   1.0000   1.0000   1.0000   1.0000   1.0000
     1.0000   1.0000   1.0000   1.0000   1.0000   1.0000   1.0000   1.0000
     1.0000   1.0000   1.0000   1.0000   1.0000   1.0000   1.0000   1.0000
     1.0000   1.0000   1.0000   1.0000   1.0000   1.0000   1.0000   1.0000
     1.0000   1.0000   1.0000   1.0000   1.0000   1.0000   1.0000   1.0000
     1.0000   1.0000   1.0000   1.0000   1.0000   1.0000   1.0000   1.0000
     1.0000   1.0000   1.0000   1.0000   1.0000   1.0000   1.0000   1.0000
     1.0000   1.0000   1.0000   1.0000   1.0000   1.0000   1.0000   1.0000
     1.0000   1.0000   1.0000   1.0000   1.0000   1.0000   1.0000   1.0000
     1.0000   1.0000   1.0000   1.0000   1.0000   1.0000   1.0000   1.0000
     1.0000   1.0000   1.0000   1.0000   1.0000   1.0000   1.0000   1.0000
     1.0000   1.0000   1.0000   1.0000   1.0000   1.0000   1.0000   1.0000
     1.0000   1.0000   1.0000   1.0000   1.0000   1.0000   1.0000   1.0000
     1.0000   1.0000   1.0000   1.0000   1.0000   1.0000   1.0000   1.0000
     1.0000   1.0000   1.0000   1.0000   1.0000   1.0000   1.0000   1.0000
     1.0000   1.0000   1.0000   1.0000   1.0000   1.0000   1.0000   1.0000
     1.0000   1.0000   1.0000   1.0000   1.0000   1.0000   1.0000   1.0000
     1.0000   1.0000   1.0000   1.0000   1.0000   1.0000   1.0000   1.0000
     1.0000   1.0000   1.0000   1.0000   1.0000   1.0000   1.0000   1.0000
     1.0000   1.0000   1.0000   1.0000   1.0000   1.0000   1.0000   1.0000
     1.0000   1.0000   1.0000   1.0000   1.0000   1.0000   1.0000   1.0000
     1.0000   1.0000   1.0000   1.0000   1.0000   1.0000   1.0000   1.0000
     1.0000   1.0000   1.0000   1.0000   1.0000   1.0000   1.0000   1.0000
     1.0000   1.0000   1.0000   1.0000   1.0000   1.0000   1.0000   1.0000
     1.0000   1.0000   1.0000   1.0000   1.0000   1.0000   1.0000   1.0000
     1.0000   1.0000   1.0000   1.0000   1.0000   1.0000   1.0000   1.0000
     1.0000   1.0000   1.0000   1.0000   1.0000   1.0000   1.0000   1.0000
     1.0000   1.0000   1.0000   1.0000   1.0000   1.0000   1.0000   1.0000
     1.0000   1.0000   1.0000   1.0000   1.0000   1.0000   1.0000   1.0000
     1.0000   1.0000   1.0000   1.0000   1.0000   1.0000   1.0000   1.0000
     1.0000   1.0000   1.0000   1.0000   1.0000   1.0000   1.0000   1.0000
     1.0000   1.0000   1.0000   1.0000   1.0000   1.0000   1.0000   1.0000
     1.0000   1.0000   1.0000   1.0000   1.0000   1.0000   1.0000   1.0000
     1.0000   1.0000   1.0000   1.0000   1.0000   1.0000   1.0000   1.0000
     1.0000   1.0000   1.0000   1.0000   1.0000   1.0000   1.0000   1.0000
     1.0000   1.0000   1.0000   1.0000   1.0000   1.0000   1.0000   1.0000
     1.0000   1.0000   1.0000   1.0000   1.0000   1.0000   1.0000   1.0000
     1.0000   1.0000   1.0000   1.0000   1.0000   1.0000   1.0000   1.0000
     1.0000   1.0000   1.0000   1.0000   1.0000   1.0000   1.0000   1.0000
     1.0000   1.0000   1.0000   1.0000   1.0000   1.0000   1.0000   1.0000
     1.0000   1.0000   1.0000   1.0000   1.0000   1.0000   1.0000   1.0000
     1.0000   1.0000   1.0000   1.0000   1.0000   1.0000   1.0000   1.0000
     1.0000   1.0000   1.0000   1.0000   1.0000   1.0000   1.0000   1.0000
     1.0000   1.0000   1.0000   1.0000   1.0000   1.0000   1.0000   1.0000
     1.0000   1.0000   1.0000   1.0000   1.0000   1.0000   1.0000   1.0000
     1.0000   1.0000   1.0000   1.0000   1.0000   1.0000   1.0000   1.0000
     1.0000   1.0000   1.0000   1.0000   1.0000   1.0000   1.0000   1.0000
     1.0001   1.0001   1.0004   0.8924  -0.0000  -0.0000  -0.0000  -0.0000
    -0.0000  -0.0000  -0.0000  -0.0000  -0.0000  -0.0000  -0.0000  -0.0000
    -0.0000  -0.0000  -0.0000  -0.0000  -0.0000  -0.0000  -0.0000  -0.0000
    -0.0000  -0.0000  -0.0000  -0.0000  -0.0000  -0.0000  -0.0000  -0.0000
    -0.0000  -0.0000  -0.0000  -0.0000  -0.0000  -0.0000  -0.0000  -0.0000
    -0.0000  -0.0000  -0.0000  -0.0000  -0.0000  -0.0000  -0.0000  -0.0000
    -0.0000  -0.0000  -0.0000  -0.0000  -0.0000  -0.0000  -0.0000  -0.0000
    -0.0000  -0.0000  -0.0000  -0.0000  -0.0000  -0.0000  -0.0000  -0.0000
    -0.0000  -0.0000  -0.0000  -0.0000  -0.0000  -0.0000  -0.0000  -0.0000
    -0.0000  -0.0000  -0.0000  -0.0000  -0.0000  -0.0000  -0.0000  -0.0000
    -0.0000  -0.0000  -0.0000  -0.0000  -0.0000  -0.0000  -0.0000  -0.0000
    -0.0000  -0.0000  -0.0000  -0.0000  -0.0000  -0.0000  -0.0000  -0.0000
    -0.0000  -0.0000  -0.0000  -0.0000  -0.0000  -0.0000  -0.0000  -0.0000
    -0.0000  -0.0000  -0.0000  -0.0000  -0.0000  -0.0000  -0.0000  -0.0000

          k = 0.2500 0.4330 0.2373 (554556 PWs)   bands (ev):

   -68.2851 -68.2849 -68.2848 -68.2848 -68.2846 -68.2846 -68.2846 -68.2846
   -68.2846 -68.2846 -68.2846 -68.2846 -68.2846 -68.2845 -68.2844 -68.2844
   -68.2842 -68.2841 -67.7467 -67.7456 -67.7455 -67.7452 -67.7448 -67.7446
   -67.7446 -67.7445 -67.7444 -67.7444 -67.7443 -67.7443 -67.7442 -67.7441
   -67.7441 -67.7441 -67.7441 -67.7440 -67.7439 -67.7439 -67.7438 -67.7438
   -67.7438 -67.7437 -67.7436 -67.7436 -67.7435 -67.7435 -67.7434 -67.7433
   -67.7433 -67.7431 -67.7428 -67.7424 -67.7423 -67.7412 -35.6961 -35.6960
   -35.6959 -35.6959 -35.6957 -35.6957 -35.6957 -35.6957 -35.6956 -35.6956
   -35.6956 -35.6956 -35.6956 -35.6956 -35.6954 -35.6954 -35.6953 -35.6952
   -35.6912 -35.6912 -35.6911 -35.6911 -35.6910 -35.6910 -35.6910 -35.6909
   -35.6908 -35.6908 -35.6908 -35.6908 -35.6908 -35.6908 -35.6907 -35.6907
   -35.6907 -35.6907 -35.6907 -35.6907 -35.6907 -35.6907 -35.6907 -35.6907
   -35.6907 -35.6907 -35.6906 -35.6906 -35.6905 -35.6905 -35.6905 -35.6905
   -35.6904 -35.6903 -35.6903 -35.6902 -35.1792 -35.1789 -35.1784 -35.1783
   -35.1782 -35.1781 -35.1779 -35.1778 -35.1777 -35.1776 -35.1775 -35.1775
   -35.1774 -35.1774 -35.1773 -35.1773 -35.1773 -35.1772 -35.1772 -35.1772
   -35.1771 -35.1771 -35.1771 -35.1770 -35.1770 -35.1769 -35.1768 -35.1768
   -35.1767 -35.1766 -35.1766 -35.1765 -35.1764 -35.1764 -35.1764 -35.1763
   -35.1762 -35.1761 -35.1761 -35.1760 -35.1759 -35.1758 -35.1756 -35.1754
   -35.1753 -35.1753 -35.1752 -35.1752 -35.1750 -35.1748 -35.1747 -35.1742
   -35.1741 -35.1735 -35.1720 -35.1715 -35.1714 -35.1712 -35.1711 -35.1710
   -35.1709 -35.1707 -35.1706 -35.1706 -35.1706 -35.1705 -35.1704 -35.1704
   -35.1704 -35.1702 -35.1701 -35.1700 -35.1700 -35.1698 -35.1697 -35.1697
   -35.1695 -35.1695 -35.1694 -35.1693 -35.1693 -35.1692 -35.1692 -35.1690
   -35.1689 -35.1688 -35.1687 -35.1687 -35.1686 -35.1685 -35.1685 -35.1684
   -35.1683 -35.1682 -35.1682 -35.1682 -35.1682 -35.1681 -35.1681 -35.1680
   -35.1680 -35.1678 -35.1677 -35.1676 -35.1673 -35.1672 -35.1669 -35.1663
   -14.2175 -14.2173 -14.2166 -14.2164 -14.2161 -14.2157 -14.2154 -14.2151
   -14.2149 -14.2148 -14.2148 -14.2146 -14.2145 -14.2141 -14.2141 -14.2138
   -14.2136 -14.2132 -14.2122 -14.2117 -14.2115 -14.2113 -14.2111 -14.2110
   -14.2108 -14.2107 -14.2106 -14.2105 -14.2104 -14.2103 -14.2101 -14.2100
   -14.2098 -14.2096 -14.2093 -14.2092 -14.2091 -14.2089 -14.2088 -14.2087
   -14.2086 -14.2085 -14.2082 -14.2082 -14.2080 -14.2079 -14.2078 -14.2078
   -14.2078 -14.2077 -14.2076 -14.2075 -14.2074 -14.2072 -14.2071 -14.2070
   -14.2068 -14.2066 -14.2062 -14.2060 -14.2057 -14.2054 -14.2051 -14.2048
   -14.2047 -14.2042 -14.2042 -14.2039 -14.2036 -14.2031 -14.2027 -14.2022
   -14.1900 -14.1884 -14.1882 -14.1879 -14.1876 -14.1874 -14.1873 -14.1870
   -14.1870 -14.1867 -14.1865 -14.1863 -14.1862 -14.1861 -14.1860 -14.1858
   -14.1856 -14.1855 -14.1854 -14.1851 -14.1850 -14.1849 -14.1848 -14.1844
   -14.1838 -14.1837 -14.1836 -14.1835 -14.1833 -14.1829 -14.1826 -14.1825
   -14.1824 -14.1822 -14.1821 -14.1808 -14.1744 -14.1741 -14.1736 -14.1735
   -14.1731 -14.1730 -14.1728 -14.1726 -14.1725 -14.1723 -14.1722 -14.1721
   -14.1720 -14.1718 -14.1717 -14.1715 -14.1713 -14.1712 -14.1708 -14.1707
   -14.1704 -14.1703 -14.1698 -14.1696 -14.1690 -14.1689 -14.1687 -14.1685
   -14.1676 -14.1672 -14.1671 -14.1668 -14.1667 -14.1663 -14.1660 -14.1654
   -14.1654 -14.1652 -14.1650 -14.1646 -14.1645 -14.1641 -14.1632 -14.1631
   -14.1630 -14.1628 -14.1626 -14.1624 -14.1614 -14.1613 -14.1611 -14.1610
   -14.1604 -14.1603 -14.1593 -14.1590 -14.1588 -14.1586 -14.1584 -14.1583
   -14.1582 -14.1581 -14.1580 -14.1577 -14.1577 -14.1575 -14.1572 -14.1570
   -14.1569 -14.1566 -14.1561 -14.1558  -3.5845  -3.4393  -3.4387  -3.4127
    -3.2796  -3.2786  -3.0796  -3.0788  -2.9681  -2.9622  -2.9605  -2.9025
    -2.8821  -2.8803  -2.8767  -2.8755  -2.8164  -2.8046  -2.8026  -2.7990
    -2.7424  -2.7225  -2.6935  -2.6912  -2.6586  -2.6578  -2.6458  -2.6416
    -2.6353  -2.6287  -2.5775  -2.5700  -2.5678  -2.5584  -2.5571  -2.5507
     3.0497   3.0838   3.1800   3.2115   3.2403   3.2621   3.3182   3.4615
     3.4813   3.5280   3.5293   3.5305   3.5619   3.6039   3.6215   3.6479
     3.6909   3.7025   3.7572   3.8555   3.8859   3.9194   3.9296   3.9769
     3.9779   3.9963   4.0592   4.0714   4.1213   4.1540   4.5998   4.6417
     4.6620   4.6691   4.6759   4.6987   4.7445   4.7513   4.8223   4.8339
     4.9509   4.9597   5.0222   5.1218   5.2361   5.2430   5.2490   5.3212
     5.3437   5.3547   5.3669   5.3793   5.3901   5.4140   5.4733   5.5107
     5.5545   5.7347   5.7371   5.7858   5.7877   5.8655   5.9109   5.9343
     5.9825   6.0235   6.0779   6.0957   6.1136   6.1428   6.1670   6.1878
     6.1919   6.1926   6.2497   6.2533   6.3218   6.3448   6.3622   6.3733
     6.4014   6.4415   6.4505   6.4549   6.7231   6.7727   6.7987   6.8136
     6.8193   6.8486   6.8586   6.8686   6.9574   6.9579   6.9984   7.0292
     7.0315   7.0989   7.1191   7.1212   7.1414   7.2379   7.2999   7.3306
     7.5507   7.5913   7.5966   7.7854   8.3091   8.5837   8.6149   8.6710
     8.8865   8.8942   8.9656   9.1036   9.2167   9.2207   9.3436   9.3580
     9.3587   9.4247   9.5225   9.5733   9.5745   9.5982   9.6569   9.6625
     9.7837   9.7880   9.8814   9.9334   9.9343   9.9544   9.9679  10.0068
    10.0479  10.0620  10.0715  10.2325  10.2411  10.2702  10.2721  10.2808
    10.2858  10.3862  10.4405  10.4479  10.4485  10.4801  10.4849  10.5269
    10.5789  10.6266  10.6608  10.6666  10.7291  10.7435  10.7519  10.7538
    10.7957  10.8335  10.8633  10.9351  11.0027  11.0047  11.0082  11.0915
    11.1777  11.2173  11.2557  11.2713  11.3009  11.3330  11.3479  11.3588
    11.3678  11.3803  11.4175  11.5079  11.5472  11.5623  11.5706  11.5726
    11.6067  11.6082  11.6201  11.6305  11.6448  11.7676  11.8266  11.8293
    11.8403  11.8632  11.8854  11.9040  11.9710  12.1096  12.1174  12.1411
    12.1525  12.1560  12.1580  12.2474  12.2675  12.3480  12.3524  12.3793
    12.3946  12.4218  12.4930  12.5224  12.5656  12.5963  12.5972  12.7027

     occupation numbers 
     1.0000   1.0000   1.0000   1.0000   1.0000   1.0000   1.0000   1.0000
     1.0000   1.0000   1.0000   1.0000   1.0000   1.0000   1.0000   1.0000
     1.0000   1.0000   1.0000   1.0000   1.0000   1.0000   1.0000   1.0000
     1.0000   1.0000   1.0000   1.0000   1.0000   1.0000   1.0000   1.0000
     1.0000   1.0000   1.0000   1.0000   1.0000   1.0000   1.0000   1.0000
     1.0000   1.0000   1.0000   1.0000   1.0000   1.0000   1.0000   1.0000
     1.0000   1.0000   1.0000   1.0000   1.0000   1.0000   1.0000   1.0000
     1.0000   1.0000   1.0000   1.0000   1.0000   1.0000   1.0000   1.0000
     1.0000   1.0000   1.0000   1.0000   1.0000   1.0000   1.0000   1.0000
     1.0000   1.0000   1.0000   1.0000   1.0000   1.0000   1.0000   1.0000
     1.0000   1.0000   1.0000   1.0000   1.0000   1.0000   1.0000   1.0000
     1.0000   1.0000   1.0000   1.0000   1.0000   1.0000   1.0000   1.0000
     1.0000   1.0000   1.0000   1.0000   1.0000   1.0000   1.0000   1.0000
     1.0000   1.0000   1.0000   1.0000   1.0000   1.0000   1.0000   1.0000
     1.0000   1.0000   1.0000   1.0000   1.0000   1.0000   1.0000   1.0000
     1.0000   1.0000   1.0000   1.0000   1.0000   1.0000   1.0000   1.0000
     1.0000   1.0000   1.0000   1.0000   1.0000   1.0000   1.0000   1.0000
     1.0000   1.0000   1.0000   1.0000   1.0000   1.0000   1.0000   1.0000
     1.0000   1.0000   1.0000   1.0000   1.0000   1.0000   1.0000   1.0000
     1.0000   1.0000   1.0000   1.0000   1.0000   1.0000   1.0000   1.0000
     1.0000   1.0000   1.0000   1.0000   1.0000   1.0000   1.0000   1.0000
     1.0000   1.0000   1.0000   1.0000   1.0000   1.0000   1.0000   1.0000
     1.0000   1.0000   1.0000   1.0000   1.0000   1.0000   1.0000   1.0000
     1.0000   1.0000   1.0000   1.0000   1.0000   1.0000   1.0000   1.0000
     1.0000   1.0000   1.0000   1.0000   1.0000   1.0000   1.0000   1.0000
     1.0000   1.0000   1.0000   1.0000   1.0000   1.0000   1.0000   1.0000
     1.0000   1.0000   1.0000   1.0000   1.0000   1.0000   1.0000   1.0000
     1.0000   1.0000   1.0000   1.0000   1.0000   1.0000   1.0000   1.0000
     1.0000   1.0000   1.0000   1.0000   1.0000   1.0000   1.0000   1.0000
     1.0000   1.0000   1.0000   1.0000   1.0000   1.0000   1.0000   1.0000
     1.0000   1.0000   1.0000   1.0000   1.0000   1.0000   1.0000   1.0000
     1.0000   1.0000   1.0000   1.0000   1.0000   1.0000   1.0000   1.0000
     1.0000   1.0000   1.0000   1.0000   1.0000   1.0000   1.0000   1.0000
     1.0000   1.0000   1.0000   1.0000   1.0000   1.0000   1.0000   1.0000
     1.0000   1.0000   1.0000   1.0000   1.0000   1.0000   1.0000   1.0000
     1.0000   1.0000   1.0000   1.0000   1.0000   1.0000   1.0000   1.0000
     1.0000   1.0000   1.0000   1.0000   1.0000   1.0000   1.0000   1.0000
     1.0000   1.0000   1.0000   1.0000   1.0000   1.0000   1.0000   1.0000
     1.0000   1.0000   1.0000   1.0000   1.0000   1.0000   1.0000   1.0000
     1.0000   1.0000   1.0000   1.0000   1.0000   1.0000   1.0000   1.0000
     1.0000   1.0000   1.0000   1.0000   1.0000   1.0000   1.0000   1.0000
     1.0000   1.0000   1.0000   1.0000   1.0000   1.0000   1.0000   1.0000
     1.0000   1.0000   1.0000   1.0000   1.0000   1.0000   1.0000   1.0000
     1.0000   1.0000   1.0000   1.0000   1.0000   1.0000   1.0000   1.0000
     1.0000   1.0000   1.0000   1.0000   1.0000   1.0000   1.0000   1.0000
     1.0000   1.0000   1.0000   1.0000   1.0000   1.0000   1.0000   1.0000
     1.0000   1.0000   1.0000   1.0000   1.0000   1.0000   1.0000   1.0000
     1.0000   1.0000   1.0000   1.0000   1.0000   1.0000   1.0000   1.0000
     1.0000   1.0000   1.0000   1.0000   1.0000   1.0000   1.0000   1.0000
     1.0000   1.0000   1.0000   1.0000   1.0000   1.0000   1.0000   1.0000
     1.0000   1.0000   1.0000   1.0000   1.0000   1.0000   1.0000   1.0000
     1.0000   1.0000   1.0000   1.0000   1.0000   1.0000   1.0000   1.0000
     1.0000   1.0000   1.0000   1.0000   1.0000   1.0000   1.0000   1.0000
     1.0000   1.0000   1.0000   1.0000   1.0000   1.0000   1.0000   1.0000
     1.0000   1.0000   1.0000   1.0000   1.0000   1.0000   1.0000   1.0000
     1.0000   1.0000   1.0000   1.0000   1.0000   1.0000   1.0000   1.0000
     1.0000   1.0000   1.0000   1.0000   1.0000   1.0000   1.0000   1.0000
     1.0000   1.0000   1.0000   1.0000   1.0000   1.0000   1.0000   1.0000
     1.0000   1.0000   1.0000   1.0000   1.0000   1.0000   1.0000   1.0000
     1.0000   1.0000   1.0000   1.0000   1.0000   1.0000   1.0000   1.0000
     1.0000   1.0000   1.0000   1.0000   1.0000   1.0000   1.0000   1.0000
     1.0000   1.0000   1.0000   1.0000   1.0000   1.0000   1.0000   1.0000
     1.0000   1.0000   1.0000   1.0000   1.0000   1.0000   1.0000   1.0000
     1.0000   1.0000   1.0000   1.0000   1.0000   1.0000   1.0000   1.0000
     1.0000   1.0000   1.0000   1.0000   1.0000   1.0000   1.0000   1.0000
     1.0000   1.0000   1.0000   1.0000   1.0000   1.0000   1.0000   1.0000
     1.0000   1.0000   1.0000   1.0000   1.0000   1.0000   1.0000   1.0000
     1.0000   1.0002   1.0003   1.0312  -0.0015  -0.0000  -0.0000  -0.0000
    -0.0000  -0.0000  -0.0000  -0.0000  -0.0000  -0.0000  -0.0000  -0.0000
    -0.0000  -0.0000  -0.0000  -0.0000  -0.0000  -0.0000  -0.0000  -0.0000
    -0.0000  -0.0000  -0.0000  -0.0000  -0.0000  -0.0000  -0.0000  -0.0000
    -0.0000  -0.0000  -0.0000  -0.0000  -0.0000  -0.0000  -0.0000  -0.0000
    -0.0000  -0.0000  -0.0000  -0.0000  -0.0000  -0.0000  -0.0000  -0.0000
    -0.0000  -0.0000  -0.0000  -0.0000  -0.0000  -0.0000  -0.0000  -0.0000
    -0.0000  -0.0000  -0.0000  -0.0000  -0.0000  -0.0000  -0.0000  -0.0000
    -0.0000  -0.0000  -0.0000  -0.0000  -0.0000  -0.0000  -0.0000  -0.0000
    -0.0000  -0.0000  -0.0000  -0.0000  -0.0000  -0.0000  -0.0000  -0.0000
    -0.0000  -0.0000  -0.0000  -0.0000  -0.0000  -0.0000  -0.0000  -0.0000
    -0.0000  -0.0000  -0.0000  -0.0000  -0.0000  -0.0000  -0.0000  -0.0000
    -0.0000  -0.0000  -0.0000  -0.0000  -0.0000  -0.0000  -0.0000  -0.0000
    -0.0000  -0.0000  -0.0000  -0.0000  -0.0000  -0.0000  -0.0000  -0.0000

          k = 0.2500 0.4330-0.4746 (554570 PWs)   bands (ev):

   -68.2851 -68.2849 -68.2848 -68.2848 -68.2846 -68.2846 -68.2846 -68.2846
   -68.2846 -68.2846 -68.2846 -68.2846 -68.2846 -68.2845 -68.2844 -68.2844
   -68.2842 -68.2841 -67.7467 -67.7456 -67.7455 -67.7452 -67.7448 -67.7446
   -67.7446 -67.7445 -67.7444 -67.7444 -67.7443 -67.7443 -67.7442 -67.7441
   -67.7441 -67.7441 -67.7441 -67.7440 -67.7439 -67.7439 -67.7438 -67.7438
   -67.7438 -67.7437 -67.7436 -67.7436 -67.7435 -67.7435 -67.7434 -67.7433
   -67.7433 -67.7431 -67.7428 -67.7424 -67.7423 -67.7412 -35.6961 -35.6960
   -35.6959 -35.6959 -35.6957 -35.6957 -35.6957 -35.6957 -35.6956 -35.6956
   -35.6956 -35.6956 -35.6956 -35.6956 -35.6954 -35.6954 -35.6953 -35.6952
   -35.6912 -35.6912 -35.6911 -35.6911 -35.6910 -35.6910 -35.6910 -35.6909
   -35.6908 -35.6908 -35.6908 -35.6908 -35.6908 -35.6908 -35.6907 -35.6907
   -35.6907 -35.6907 -35.6907 -35.6907 -35.6907 -35.6907 -35.6907 -35.6907
   -35.6907 -35.6907 -35.6906 -35.6906 -35.6905 -35.6905 -35.6905 -35.6905
   -35.6904 -35.6903 -35.6903 -35.6902 -35.1792 -35.1789 -35.1784 -35.1783
   -35.1782 -35.1781 -35.1779 -35.1778 -35.1777 -35.1776 -35.1775 -35.1775
   -35.1774 -35.1774 -35.1773 -35.1773 -35.1773 -35.1772 -35.1772 -35.1772
   -35.1771 -35.1771 -35.1771 -35.1770 -35.1770 -35.1769 -35.1768 -35.1768
   -35.1767 -35.1766 -35.1766 -35.1765 -35.1764 -35.1764 -35.1764 -35.1763
   -35.1762 -35.1761 -35.1761 -35.1760 -35.1759 -35.1758 -35.1756 -35.1754
   -35.1753 -35.1753 -35.1752 -35.1752 -35.1750 -35.1748 -35.1747 -35.1742
   -35.1741 -35.1735 -35.1720 -35.1715 -35.1714 -35.1712 -35.1711 -35.1710
   -35.1709 -35.1707 -35.1706 -35.1706 -35.1706 -35.1705 -35.1704 -35.1704
   -35.1704 -35.1702 -35.1701 -35.1700 -35.1700 -35.1698 -35.1697 -35.1697
   -35.1695 -35.1695 -35.1694 -35.1693 -35.1693 -35.1692 -35.1692 -35.1690
   -35.1689 -35.1688 -35.1687 -35.1687 -35.1686 -35.1685 -35.1685 -35.1684
   -35.1683 -35.1682 -35.1682 -35.1682 -35.1682 -35.1681 -35.1681 -35.1680
   -35.1680 -35.1678 -35.1677 -35.1676 -35.1673 -35.1672 -35.1669 -35.1663
   -14.2174 -14.2172 -14.2165 -14.2165 -14.2162 -14.2155 -14.2155 -14.2152
   -14.2151 -14.2148 -14.2147 -14.2146 -14.2145 -14.2143 -14.2140 -14.2139
   -14.2136 -14.2133 -14.2121 -14.2117 -14.2115 -14.2113 -14.2111 -14.2110
   -14.2109 -14.2106 -14.2105 -14.2104 -14.2104 -14.2102 -14.2099 -14.2098
   -14.2097 -14.2096 -14.2094 -14.2092 -14.2091 -14.2089 -14.2089 -14.2088
   -14.2087 -14.2086 -14.2085 -14.2083 -14.2082 -14.2081 -14.2080 -14.2079
   -14.2078 -14.2078 -14.2077 -14.2075 -14.2074 -14.2073 -14.2072 -14.2070
   -14.2067 -14.2066 -14.2061 -14.2057 -14.2055 -14.2054 -14.2049 -14.2048
   -14.2046 -14.2041 -14.2039 -14.2038 -14.2036 -14.2034 -14.2028 -14.2023
   -14.1900 -14.1883 -14.1882 -14.1878 -14.1876 -14.1875 -14.1873 -14.1868
   -14.1868 -14.1867 -14.1865 -14.1865 -14.1863 -14.1862 -14.1859 -14.1858
   -14.1857 -14.1856 -14.1854 -14.1853 -14.1850 -14.1849 -14.1848 -14.1844
   -14.1837 -14.1837 -14.1836 -14.1835 -14.1833 -14.1828 -14.1826 -14.1824
   -14.1823 -14.1823 -14.1821 -14.1808 -14.1745 -14.1741 -14.1736 -14.1735
   -14.1731 -14.1731 -14.1728 -14.1727 -14.1726 -14.1722 -14.1722 -14.1720
   -14.1718 -14.1716 -14.1716 -14.1715 -14.1714 -14.1713 -14.1711 -14.1709
   -14.1702 -14.1701 -14.1701 -14.1698 -14.1690 -14.1689 -14.1686 -14.1685
   -14.1676 -14.1673 -14.1669 -14.1668 -14.1665 -14.1664 -14.1659 -14.1656
   -14.1655 -14.1653 -14.1650 -14.1645 -14.1644 -14.1641 -14.1632 -14.1631
   -14.1631 -14.1629 -14.1626 -14.1624 -14.1615 -14.1614 -14.1611 -14.1610
   -14.1604 -14.1603 -14.1592 -14.1590 -14.1586 -14.1585 -14.1584 -14.1582
   -14.1581 -14.1580 -14.1579 -14.1578 -14.1577 -14.1575 -14.1574 -14.1569
   -14.1568 -14.1568 -14.1563 -14.1559  -3.5138  -3.5132  -3.3735  -3.3731
    -3.3725  -3.3720  -3.0309  -3.0308  -3.0294  -3.0291  -2.8665  -2.8659
    -2.8493  -2.8488  -2.8460  -2.8456  -2.8313  -2.8307  -2.7785  -2.7779
    -2.7547  -2.7542  -2.7532  -2.7529  -2.6165  -2.6163  -2.6143  -2.6141
    -2.6020  -2.6017  -2.5988  -2.5982  -2.5980  -2.5974  -2.5865  -2.5858
     3.1054   3.1056   3.1467   3.1468   3.2365   3.2370   3.5560   3.5567
     3.5634   3.5638   3.6185   3.6190   3.6468   3.6472   3.6866   3.6869
     3.6980   3.6982   3.7293   3.7302   3.7631   3.7632   3.8002   3.8004
     3.8365   3.8368   3.8920   3.8920   4.0424   4.0426   4.6533   4.6534
     4.7117   4.7123   4.8642   4.8643   4.9791   4.9792   5.0584   5.0589
     5.0627   5.0628   5.1206   5.1207   5.1355   5.1356   5.3431   5.3431
     5.3968   5.3970   5.3996   5.3996   5.4398   5.4399   5.4542   5.4542
     5.6033   5.6037   5.7194   5.7201   5.7229   5.7236   5.7316   5.7318
     5.7706   5.7709   5.8399   5.8403   6.0229   6.0239   6.1918   6.1919
     6.2122   6.2124   6.3000   6.3002   6.3316   6.3317   6.4174   6.4180
     6.4376   6.4381   6.5674   6.5676   6.7039   6.7041   6.7086   6.7096
     6.7306   6.7307   6.8913   6.8918   7.0895   7.0896   7.1197   7.1198
     7.1667   7.1669   7.1735   7.1737   7.3887   7.3891   7.4250   7.4251
     7.4324   7.4330   7.4902   7.4908   8.4528   8.4529   8.6179   8.6182
     9.0656   9.0659   9.1431   9.1435   9.1641   9.1645   9.3609   9.3613
     9.4334   9.4335   9.5051   9.5052   9.6473   9.6474   9.6516   9.6517
     9.6924   9.6924   9.8332   9.8332   9.9335   9.9346   9.9574   9.9575
    10.1293  10.1294  10.1504  10.1506  10.2226  10.2234  10.2513  10.2513
    10.3249  10.3253  10.4069  10.4073  10.4081  10.4082  10.5517  10.5517
    10.6082  10.6085  10.6802  10.6802  10.7180  10.7183  10.8779  10.8780
    10.9584  10.9585  11.0147  11.0149  11.0864  11.0870  11.1247  11.1248
    11.1345  11.1348  11.1706  11.1716  11.2514  11.2524  11.2715  11.2718
    11.3496  11.3497  11.4771  11.4775  11.5589  11.5593  11.6024  11.6027
    11.6129  11.6130  11.6443  11.6444  11.6571  11.6575  11.6775  11.6784
    11.7482  11.7483  11.7557  11.7562  11.8660  11.8669  11.9144  11.9147
    11.9309  11.9311  12.2533  12.2538  12.2658  12.2659  12.4157  12.4161
    12.4865  12.4870  12.5689  12.5689  12.5877  12.5878  12.6556  12.6560

     occupation numbers 
     1.0000   1.0000   1.0000   1.0000   1.0000   1.0000   1.0000   1.0000
     1.0000   1.0000   1.0000   1.0000   1.0000   1.0000   1.0000   1.0000
     1.0000   1.0000   1.0000   1.0000   1.0000   1.0000   1.0000   1.0000
     1.0000   1.0000   1.0000   1.0000   1.0000   1.0000   1.0000   1.0000
     1.0000   1.0000   1.0000   1.0000   1.0000   1.0000   1.0000   1.0000
     1.0000   1.0000   1.0000   1.0000   1.0000   1.0000   1.0000   1.0000
     1.0000   1.0000   1.0000   1.0000   1.0000   1.0000   1.0000   1.0000
     1.0000   1.0000   1.0000   1.0000   1.0000   1.0000   1.0000   1.0000
     1.0000   1.0000   1.0000   1.0000   1.0000   1.0000   1.0000   1.0000
     1.0000   1.0000   1.0000   1.0000   1.0000   1.0000   1.0000   1.0000
     1.0000   1.0000   1.0000   1.0000   1.0000   1.0000   1.0000   1.0000
     1.0000   1.0000   1.0000   1.0000   1.0000   1.0000   1.0000   1.0000
     1.0000   1.0000   1.0000   1.0000   1.0000   1.0000   1.0000   1.0000
     1.0000   1.0000   1.0000   1.0000   1.0000   1.0000   1.0000   1.0000
     1.0000   1.0000   1.0000   1.0000   1.0000   1.0000   1.0000   1.0000
     1.0000   1.0000   1.0000   1.0000   1.0000   1.0000   1.0000   1.0000
     1.0000   1.0000   1.0000   1.0000   1.0000   1.0000   1.0000   1.0000
     1.0000   1.0000   1.0000   1.0000   1.0000   1.0000   1.0000   1.0000
     1.0000   1.0000   1.0000   1.0000   1.0000   1.0000   1.0000   1.0000
     1.0000   1.0000   1.0000   1.0000   1.0000   1.0000   1.0000   1.0000
     1.0000   1.0000   1.0000   1.0000   1.0000   1.0000   1.0000   1.0000
     1.0000   1.0000   1.0000   1.0000   1.0000   1.0000   1.0000   1.0000
     1.0000   1.0000   1.0000   1.0000   1.0000   1.0000   1.0000   1.0000
     1.0000   1.0000   1.0000   1.0000   1.0000   1.0000   1.0000   1.0000
     1.0000   1.0000   1.0000   1.0000   1.0000   1.0000   1.0000   1.0000
     1.0000   1.0000   1.0000   1.0000   1.0000   1.0000   1.0000   1.0000
     1.0000   1.0000   1.0000   1.0000   1.0000   1.0000   1.0000   1.0000
     1.0000   1.0000   1.0000   1.0000   1.0000   1.0000   1.0000   1.0000
     1.0000   1.0000   1.0000   1.0000   1.0000   1.0000   1.0000   1.0000
     1.0000   1.0000   1.0000   1.0000   1.0000   1.0000   1.0000   1.0000
     1.0000   1.0000   1.0000   1.0000   1.0000   1.0000   1.0000   1.0000
     1.0000   1.0000   1.0000   1.0000   1.0000   1.0000   1.0000   1.0000
     1.0000   1.0000   1.0000   1.0000   1.0000   1.0000   1.0000   1.0000
     1.0000   1.0000   1.0000   1.0000   1.0000   1.0000   1.0000   1.0000
     1.0000   1.0000   1.0000   1.0000   1.0000   1.0000   1.0000   1.0000
     1.0000   1.0000   1.0000   1.0000   1.0000   1.0000   1.0000   1.0000
     1.0000   1.0000   1.0000   1.0000   1.0000   1.0000   1.0000   1.0000
     1.0000   1.0000   1.0000   1.0000   1.0000   1.0000   1.0000   1.0000
     1.0000   1.0000   1.0000   1.0000   1.0000   1.0000   1.0000   1.0000
     1.0000   1.0000   1.0000   1.0000   1.0000   1.0000   1.0000   1.0000
     1.0000   1.0000   1.0000   1.0000   1.0000   1.0000   1.0000   1.0000
     1.0000   1.0000   1.0000   1.0000   1.0000   1.0000   1.0000   1.0000
     1.0000   1.0000   1.0000   1.0000   1.0000   1.0000   1.0000   1.0000
     1.0000   1.0000   1.0000   1.0000   1.0000   1.0000   1.0000   1.0000
     1.0000   1.0000   1.0000   1.0000   1.0000   1.0000   1.0000   1.0000
     1.0000   1.0000   1.0000   1.0000   1.0000   1.0000   1.0000   1.0000
     1.0000   1.0000   1.0000   1.0000   1.0000   1.0000   1.0000   1.0000
     1.0000   1.0000   1.0000   1.0000   1.0000   1.0000   1.0000   1.0000
     1.0000   1.0000   1.0000   1.0000   1.0000   1.0000   1.0000   1.0000
     1.0000   1.0000   1.0000   1.0000   1.0000   1.0000   1.0000   1.0000
     1.0000   1.0000   1.0000   1.0000   1.0000   1.0000   1.0000   1.0000
     1.0000   1.0000   1.0000   1.0000   1.0000   1.0000   1.0000   1.0000
     1.0000   1.0000   1.0000   1.0000   1.0000   1.0000   1.0000   1.0000
     1.0000   1.0000   1.0000   1.0000   1.0000   1.0000   1.0000   1.0000
     1.0000   1.0000   1.0000   1.0000   1.0000   1.0000   1.0000   1.0000
     1.0000   1.0000   1.0000   1.0000   1.0000   1.0000   1.0000   1.0000
     1.0000   1.0000   1.0000   1.0000   1.0000   1.0000   1.0000   1.0000
     1.0000   1.0000   1.0000   1.0000   1.0000   1.0000   1.0000   1.0000
     1.0000   1.0000   1.0000   1.0000   1.0000   1.0000   1.0000   1.0000
     1.0000   1.0000   1.0000   1.0000   1.0000   1.0000   1.0000   1.0000
     1.0000   1.0000   1.0000   1.0000   1.0000   1.0000   1.0000   1.0000
     1.0000   1.0000   1.0000   1.0000   1.0000   1.0000   1.0000   1.0000
     1.0000   1.0000   1.0000   1.0000   1.0000   1.0000   1.0000   1.0000
     1.0000   1.0000   1.0000   1.0000   1.0000   1.0000   1.0000   1.0000
     1.0000   1.0000   1.0000   1.0000   1.0000   1.0000   1.0000   1.0000
     1.0000   1.0000   1.0000   1.0000   1.0000   1.0000   1.0000   1.0000
     1.0000   1.0000   1.0000   1.0000   1.0000   1.0000   1.0000   1.0000
     1.0000   1.0000   1.0000   1.0000  -0.0000  -0.0000  -0.0000  -0.0000
    -0.0000  -0.0000  -0.0000  -0.0000  -0.0000  -0.0000  -0.0000  -0.0000
    -0.0000  -0.0000  -0.0000  -0.0000  -0.0000  -0.0000  -0.0000  -0.0000
    -0.0000  -0.0000  -0.0000  -0.0000  -0.0000  -0.0000  -0.0000  -0.0000
    -0.0000  -0.0000  -0.0000  -0.0000  -0.0000  -0.0000  -0.0000  -0.0000
    -0.0000  -0.0000  -0.0000  -0.0000  -0.0000  -0.0000  -0.0000  -0.0000
    -0.0000  -0.0000  -0.0000  -0.0000  -0.0000  -0.0000  -0.0000  -0.0000
    -0.0000  -0.0000  -0.0000  -0.0000  -0.0000  -0.0000  -0.0000  -0.0000
    -0.0000  -0.0000  -0.0000  -0.0000  -0.0000  -0.0000  -0.0000  -0.0000
    -0.0000  -0.0000  -0.0000  -0.0000  -0.0000  -0.0000  -0.0000  -0.0000
    -0.0000  -0.0000  -0.0000  -0.0000  -0.0000  -0.0000  -0.0000  -0.0000
    -0.0000  -0.0000  -0.0000  -0.0000  -0.0000  -0.0000  -0.0000  -0.0000
    -0.0000  -0.0000  -0.0000  -0.0000  -0.0000  -0.0000  -0.0000  -0.0000
    -0.0000  -0.0000  -0.0000  -0.0000  -0.0000  -0.0000  -0.0000  -0.0000

          k =-0.2500 0.1443 0.0000 (554671 PWs)   bands (ev):

   -68.2851 -68.2849 -68.2848 -68.2848 -68.2846 -68.2846 -68.2846 -68.2846
   -68.2846 -68.2846 -68.2846 -68.2846 -68.2846 -68.2845 -68.2844 -68.2844
   -68.2842 -68.2841 -67.7467 -67.7456 -67.7455 -67.7452 -67.7448 -67.7446
   -67.7446 -67.7445 -67.7444 -67.7444 -67.7443 -67.7443 -67.7442 -67.7441
   -67.7441 -67.7441 -67.7441 -67.7440 -67.7439 -67.7439 -67.7438 -67.7438
   -67.7438 -67.7437 -67.7436 -67.7436 -67.7435 -67.7435 -67.7434 -67.7433
   -67.7433 -67.7431 -67.7428 -67.7424 -67.7423 -67.7412 -35.6961 -35.6960
   -35.6959 -35.6959 -35.6957 -35.6957 -35.6957 -35.6957 -35.6956 -35.6956
   -35.6956 -35.6956 -35.6956 -35.6956 -35.6954 -35.6954 -35.6953 -35.6952
   -35.6912 -35.6912 -35.6911 -35.6911 -35.6910 -35.6910 -35.6910 -35.6909
   -35.6908 -35.6908 -35.6908 -35.6908 -35.6908 -35.6908 -35.6907 -35.6907
   -35.6907 -35.6907 -35.6907 -35.6907 -35.6907 -35.6907 -35.6907 -35.6907
   -35.6907 -35.6907 -35.6906 -35.6906 -35.6905 -35.6905 -35.6905 -35.6905
   -35.6904 -35.6903 -35.6903 -35.6902 -35.1792 -35.1789 -35.1784 -35.1783
   -35.1782 -35.1781 -35.1779 -35.1778 -35.1777 -35.1776 -35.1775 -35.1775
   -35.1774 -35.1774 -35.1774 -35.1773 -35.1772 -35.1772 -35.1771 -35.1771
   -35.1771 -35.1771 -35.1771 -35.1770 -35.1770 -35.1769 -35.1769 -35.1768
   -35.1768 -35.1767 -35.1766 -35.1765 -35.1764 -35.1764 -35.1763 -35.1762
   -35.1762 -35.1761 -35.1760 -35.1759 -35.1758 -35.1758 -35.1757 -35.1757
   -35.1755 -35.1753 -35.1752 -35.1751 -35.1749 -35.1747 -35.1746 -35.1744
   -35.1742 -35.1733 -35.1720 -35.1716 -35.1715 -35.1712 -35.1712 -35.1710
   -35.1709 -35.1707 -35.1706 -35.1705 -35.1705 -35.1704 -35.1704 -35.1704
   -35.1703 -35.1702 -35.1701 -35.1701 -35.1700 -35.1698 -35.1698 -35.1696
   -35.1696 -35.1695 -35.1694 -35.1694 -35.1692 -35.1691 -35.1691 -35.1690
   -35.1689 -35.1689 -35.1687 -35.1687 -35.1686 -35.1686 -35.1685 -35.1684
   -35.1684 -35.1683 -35.1682 -35.1682 -35.1682 -35.1682 -35.1681 -35.1680
   -35.1680 -35.1678 -35.1677 -35.1676 -35.1673 -35.1672 -35.1669 -35.1663
   -14.2177 -14.2170 -14.2168 -14.2163 -14.2160 -14.2159 -14.2155 -14.2154
   -14.2152 -14.2151 -14.2150 -14.2149 -14.2148 -14.2146 -14.2138 -14.2136
   -14.2135 -14.2129 -14.2125 -14.2118 -14.2114 -14.2110 -14.2105 -14.2104
   -14.2103 -14.2102 -14.2101 -14.2101 -14.2100 -14.2099 -14.2099 -14.2098
   -14.2098 -14.2097 -14.2096 -14.2092 -14.2091 -14.2091 -14.2090 -14.2090
   -14.2088 -14.2087 -14.2087 -14.2086 -14.2085 -14.2084 -14.2082 -14.2082
   -14.2081 -14.2080 -14.2078 -14.2077 -14.2076 -14.2072 -14.2071 -14.2068
   -14.2062 -14.2059 -14.2057 -14.2056 -14.2053 -14.2052 -14.2051 -14.2049
   -14.2047 -14.2044 -14.2043 -14.2039 -14.2036 -14.2033 -14.2026 -14.2024
   -14.1901 -14.1887 -14.1884 -14.1879 -14.1877 -14.1876 -14.1874 -14.1872
   -14.1871 -14.1868 -14.1867 -14.1866 -14.1864 -14.1863 -14.1861 -14.1857
   -14.1852 -14.1852 -14.1848 -14.1846 -14.1845 -14.1844 -14.1842 -14.1841
   -14.1838 -14.1838 -14.1834 -14.1833 -14.1832 -14.1831 -14.1829 -14.1828
   -14.1827 -14.1824 -14.1823 -14.1809 -14.1747 -14.1744 -14.1741 -14.1741
   -14.1732 -14.1728 -14.1724 -14.1722 -14.1721 -14.1720 -14.1718 -14.1717
   -14.1715 -14.1714 -14.1713 -14.1712 -14.1710 -14.1709 -14.1708 -14.1706
   -14.1705 -14.1703 -14.1702 -14.1701 -14.1698 -14.1695 -14.1691 -14.1690
   -14.1686 -14.1684 -14.1683 -14.1677 -14.1657 -14.1656 -14.1651 -14.1649
   -14.1647 -14.1644 -14.1641 -14.1639 -14.1638 -14.1637 -14.1636 -14.1635
   -14.1633 -14.1629 -14.1626 -14.1624 -14.1624 -14.1620 -14.1618 -14.1615
   -14.1601 -14.1598 -14.1595 -14.1593 -14.1593 -14.1591 -14.1583 -14.1583
   -14.1581 -14.1579 -14.1578 -14.1576 -14.1576 -14.1574 -14.1573 -14.1570
   -14.1569 -14.1564 -14.1560 -14.1558  -3.6873  -3.4167  -3.3938  -3.2659
    -3.2657  -3.1593  -3.1041  -3.0553  -3.0550  -3.0521  -3.0518  -2.9813
    -2.9055  -2.8858  -2.8855  -2.8317  -2.8292  -2.8291  -2.7667  -2.7665
    -2.7255  -2.7253  -2.7174  -2.7005  -2.6916  -2.6914  -2.6354  -2.6352
    -2.6000  -2.5789  -2.5787  -2.5651  -2.5649  -2.5470  -2.5400  -2.5398
     3.0347   3.1114   3.3158   3.3159   3.3561   3.4158   3.4159   3.5129
     3.5180   3.5325   3.5326   3.5767   3.5768   3.5985   3.5987   3.6637
     3.6639   3.7404   3.7407   3.7599   3.7599   3.9969   4.0155   4.0155
     4.1875   4.1877   4.2180   4.2183   4.2550   4.2552   4.2647   4.2924
     4.2968   4.2969   4.4119   4.4456   4.4457   4.5008   4.5269   4.5637
     4.5637   4.7611   4.8420   4.8421   4.9665   4.9665   4.9898   4.9901
     5.3061   5.6052   5.6052   5.6401   5.6403   5.7634   5.7749   5.7751
     5.7799   5.7799   5.8695   5.8695   5.9377   5.9378   6.0419   6.0946
     6.0947   6.1030   6.1478   6.1713   6.1714   6.1889   6.1901   6.2427
     6.4061   6.4413   6.4415   6.4459   6.4461   6.4692   6.4776   6.4777
     6.5511   6.6006   6.6241   6.6242   6.6719   6.6721   6.8465   6.9037
     6.9083   6.9147   6.9743   6.9744   7.0205   7.0206   7.0325   7.0453
     7.0455   7.0625   7.0626   7.1983   7.1984   7.2002   7.3072   7.3429
     7.3855   7.5918   7.7817   8.0322   8.3627   8.3936   8.4270   8.4270
     8.7361   8.7361   8.8036   8.8036   8.8590   8.8713   9.0137   9.0138
     9.0379   9.1291   9.1291   9.2095   9.3632   9.4333   9.4333   9.5560
     9.5561   9.5774   9.5774   9.6631   9.7038   9.7538   9.7919   9.8648
     9.9006   9.9234   9.9235   9.9613   9.9613  10.2041  10.2042  10.2431
    10.2432  10.2955  10.2995  10.2995  10.3130  10.3131  10.3968  10.4350
    10.6931  10.6932  10.7170  10.7172  10.7569  10.7704  10.8279  10.8280
    10.8998  10.9261  10.9262  10.9953  11.1226  11.1228  11.1555  11.1558
    11.2236  11.2236  11.2611  11.2640  11.2989  11.2995  11.3584  11.3585
    11.4219  11.7468  11.7521  11.7842  11.7842  11.9057  11.9983  11.9984
    12.0058  12.0058  12.0325  12.0326  12.0333  12.0334  12.0877  12.0926
    12.1100  12.1173  12.1174  12.1201  12.1964  12.1966  12.2064  12.2064
    12.3153  12.3985  12.3986  12.5039  12.5142  12.5144  12.5385  12.5693
    12.5732  12.5933  12.6839  12.6951  12.6951  12.7366  12.7378  12.8726

     occupation numbers 
     1.0000   1.0000   1.0000   1.0000   1.0000   1.0000   1.0000   1.0000
     1.0000   1.0000   1.0000   1.0000   1.0000   1.0000   1.0000   1.0000
     1.0000   1.0000   1.0000   1.0000   1.0000   1.0000   1.0000   1.0000
     1.0000   1.0000   1.0000   1.0000   1.0000   1.0000   1.0000   1.0000
     1.0000   1.0000   1.0000   1.0000   1.0000   1.0000   1.0000   1.0000
     1.0000   1.0000   1.0000   1.0000   1.0000   1.0000   1.0000   1.0000
     1.0000   1.0000   1.0000   1.0000   1.0000   1.0000   1.0000   1.0000
     1.0000   1.0000   1.0000   1.0000   1.0000   1.0000   1.0000   1.0000
     1.0000   1.0000   1.0000   1.0000   1.0000   1.0000   1.0000   1.0000
     1.0000   1.0000   1.0000   1.0000   1.0000   1.0000   1.0000   1.0000
     1.0000   1.0000   1.0000   1.0000   1.0000   1.0000   1.0000   1.0000
     1.0000   1.0000   1.0000   1.0000   1.0000   1.0000   1.0000   1.0000
     1.0000   1.0000   1.0000   1.0000   1.0000   1.0000   1.0000   1.0000
     1.0000   1.0000   1.0000   1.0000   1.0000   1.0000   1.0000   1.0000
     1.0000   1.0000   1.0000   1.0000   1.0000   1.0000   1.0000   1.0000
     1.0000   1.0000   1.0000   1.0000   1.0000   1.0000   1.0000   1.0000
     1.0000   1.0000   1.0000   1.0000   1.0000   1.0000   1.0000   1.0000
     1.0000   1.0000   1.0000   1.0000   1.0000   1.0000   1.0000   1.0000
     1.0000   1.0000   1.0000   1.0000   1.0000   1.0000   1.0000   1.0000
     1.0000   1.0000   1.0000   1.0000   1.0000   1.0000   1.0000   1.0000
     1.0000   1.0000   1.0000   1.0000   1.0000   1.0000   1.0000   1.0000
     1.0000   1.0000   1.0000   1.0000   1.0000   1.0000   1.0000   1.0000
     1.0000   1.0000   1.0000   1.0000   1.0000   1.0000   1.0000   1.0000
     1.0000   1.0000   1.0000   1.0000   1.0000   1.0000   1.0000   1.0000
     1.0000   1.0000   1.0000   1.0000   1.0000   1.0000   1.0000   1.0000
     1.0000   1.0000   1.0000   1.0000   1.0000   1.0000   1.0000   1.0000
     1.0000   1.0000   1.0000   1.0000   1.0000   1.0000   1.0000   1.0000
     1.0000   1.0000   1.0000   1.0000   1.0000   1.0000   1.0000   1.0000
     1.0000   1.0000   1.0000   1.0000   1.0000   1.0000   1.0000   1.0000
     1.0000   1.0000   1.0000   1.0000   1.0000   1.0000   1.0000   1.0000
     1.0000   1.0000   1.0000   1.0000   1.0000   1.0000   1.0000   1.0000
     1.0000   1.0000   1.0000   1.0000   1.0000   1.0000   1.0000   1.0000
     1.0000   1.0000   1.0000   1.0000   1.0000   1.0000   1.0000   1.0000
     1.0000   1.0000   1.0000   1.0000   1.0000   1.0000   1.0000   1.0000
     1.0000   1.0000   1.0000   1.0000   1.0000   1.0000   1.0000   1.0000
     1.0000   1.0000   1.0000   1.0000   1.0000   1.0000   1.0000   1.0000
     1.0000   1.0000   1.0000   1.0000   1.0000   1.0000   1.0000   1.0000
     1.0000   1.0000   1.0000   1.0000   1.0000   1.0000   1.0000   1.0000
     1.0000   1.0000   1.0000   1.0000   1.0000   1.0000   1.0000   1.0000
     1.0000   1.0000   1.0000   1.0000   1.0000   1.0000   1.0000   1.0000
     1.0000   1.0000   1.0000   1.0000   1.0000   1.0000   1.0000   1.0000
     1.0000   1.0000   1.0000   1.0000   1.0000   1.0000   1.0000   1.0000
     1.0000   1.0000   1.0000   1.0000   1.0000   1.0000   1.0000   1.0000
     1.0000   1.0000   1.0000   1.0000   1.0000   1.0000   1.0000   1.0000
     1.0000   1.0000   1.0000   1.0000   1.0000   1.0000   1.0000   1.0000
     1.0000   1.0000   1.0000   1.0000   1.0000   1.0000   1.0000   1.0000
     1.0000   1.0000   1.0000   1.0000   1.0000   1.0000   1.0000   1.0000
     1.0000   1.0000   1.0000   1.0000   1.0000   1.0000   1.0000   1.0000
     1.0000   1.0000   1.0000   1.0000   1.0000   1.0000   1.0000   1.0000
     1.0000   1.0000   1.0000   1.0000   1.0000   1.0000   1.0000   1.0000
     1.0000   1.0000   1.0000   1.0000   1.0000   1.0000   1.0000   1.0000
     1.0000   1.0000   1.0000   1.0000   1.0000   1.0000   1.0000   1.0000
     1.0000   1.0000   1.0000   1.0000   1.0000   1.0000   1.0000   1.0000
     1.0000   1.0000   1.0000   1.0000   1.0000   1.0000   1.0000   1.0000
     1.0000   1.0000   1.0000   1.0000   1.0000   1.0000   1.0000   1.0000
     1.0000   1.0000   1.0000   1.0000   1.0000   1.0000   1.0000   1.0000
     1.0000   1.0000   1.0000   1.0000   1.0000   1.0000   1.0000   1.0000
     1.0000   1.0000   1.0000   1.0000   1.0000   1.0000   1.0000   1.0000
     1.0000   1.0000   1.0000   1.0000   1.0000   1.0000   1.0000   1.0000
     1.0000   1.0000   1.0000   1.0000   1.0000   1.0000   1.0000   1.0000
     1.0000   1.0000   1.0000   1.0000   1.0000   1.0000   1.0000   1.0000
     1.0000   1.0000   1.0000   1.0000   1.0000   1.0000   1.0000   1.0000
     1.0000   1.0000   1.0000   1.0000   1.0000   1.0000   1.0000   1.0000
     1.0000   1.0000   1.0000   1.0000   1.0000   1.0000   1.0000   1.0000
     1.0000   1.0000   1.0000   1.0000   1.0000   1.0000   1.0000   1.0000
     1.0000   1.0000   1.0000   1.0000   1.0000   1.0000   1.0000   1.0000
     1.0000   1.0000   1.0000   1.0000   1.0000   1.0000   1.0000   1.0000
     1.0000   1.0002   1.0301   0.1904  -0.0002  -0.0001  -0.0000  -0.0000
    -0.0000  -0.0000  -0.0000  -0.0000  -0.0000  -0.0000  -0.0000  -0.0000
    -0.0000  -0.0000  -0.0000  -0.0000  -0.0000  -0.0000  -0.0000  -0.0000
    -0.0000  -0.0000  -0.0000  -0.0000  -0.0000  -0.0000  -0.0000  -0.0000
    -0.0000  -0.0000  -0.0000  -0.0000  -0.0000  -0.0000  -0.0000  -0.0000
    -0.0000  -0.0000  -0.0000  -0.0000  -0.0000  -0.0000  -0.0000  -0.0000
    -0.0000  -0.0000  -0.0000  -0.0000  -0.0000  -0.0000  -0.0000  -0.0000
    -0.0000  -0.0000  -0.0000  -0.0000  -0.0000  -0.0000  -0.0000  -0.0000
    -0.0000  -0.0000  -0.0000  -0.0000  -0.0000  -0.0000  -0.0000  -0.0000
    -0.0000  -0.0000  -0.0000  -0.0000  -0.0000  -0.0000  -0.0000  -0.0000
    -0.0000  -0.0000  -0.0000  -0.0000  -0.0000  -0.0000  -0.0000  -0.0000
    -0.0000  -0.0000  -0.0000  -0.0000  -0.0000  -0.0000  -0.0000  -0.0000
    -0.0000  -0.0000  -0.0000  -0.0000  -0.0000  -0.0000  -0.0000  -0.0000
    -0.0000  -0.0000  -0.0000  -0.0000  -0.0000  -0.0000  -0.0000  -0.0000

          k = 0.2500 0.1443 0.0000 (554671 PWs)   bands (ev):

   -68.2851 -68.2849 -68.2848 -68.2848 -68.2846 -68.2846 -68.2846 -68.2846
   -68.2846 -68.2846 -68.2846 -68.2846 -68.2846 -68.2845 -68.2844 -68.2844
   -68.2842 -68.2841 -67.7467 -67.7456 -67.7455 -67.7452 -67.7448 -67.7446
   -67.7446 -67.7445 -67.7444 -67.7444 -67.7444 -67.7443 -67.7442 -67.7442
   -67.7441 -67.7441 -67.7440 -67.7440 -67.7439 -67.7439 -67.7438 -67.7438
   -67.7438 -67.7437 -67.7436 -67.7436 -67.7435 -67.7435 -67.7434 -67.7433
   -67.7433 -67.7431 -67.7428 -67.7424 -67.7423 -67.7412 -35.6961 -35.6960
   -35.6959 -35.6959 -35.6957 -35.6957 -35.6957 -35.6957 -35.6956 -35.6956
   -35.6956 -35.6956 -35.6956 -35.6956 -35.6954 -35.6954 -35.6953 -35.6952
   -35.6912 -35.6912 -35.6911 -35.6911 -35.6910 -35.6910 -35.6910 -35.6909
   -35.6908 -35.6908 -35.6908 -35.6908 -35.6908 -35.6908 -35.6907 -35.6907
   -35.6907 -35.6907 -35.6907 -35.6907 -35.6907 -35.6907 -35.6907 -35.6907
   -35.6907 -35.6907 -35.6906 -35.6906 -35.6905 -35.6905 -35.6905 -35.6905
   -35.6904 -35.6903 -35.6903 -35.6902 -35.1792 -35.1789 -35.1784 -35.1783
   -35.1782 -35.1781 -35.1779 -35.1778 -35.1777 -35.1776 -35.1775 -35.1774
   -35.1774 -35.1774 -35.1774 -35.1773 -35.1773 -35.1772 -35.1771 -35.1771
   -35.1771 -35.1771 -35.1771 -35.1770 -35.1770 -35.1770 -35.1768 -35.1768
   -35.1767 -35.1767 -35.1766 -35.1765 -35.1765 -35.1764 -35.1763 -35.1763
   -35.1762 -35.1761 -35.1761 -35.1760 -35.1758 -35.1757 -35.1757 -35.1756
   -35.1755 -35.1754 -35.1752 -35.1751 -35.1750 -35.1746 -35.1745 -35.1744
   -35.1743 -35.1733 -35.1721 -35.1716 -35.1714 -35.1712 -35.1712 -35.1710
   -35.1710 -35.1708 -35.1706 -35.1706 -35.1705 -35.1704 -35.1704 -35.1703
   -35.1703 -35.1702 -35.1702 -35.1701 -35.1700 -35.1698 -35.1697 -35.1696
   -35.1695 -35.1695 -35.1694 -35.1693 -35.1693 -35.1692 -35.1691 -35.1690
   -35.1689 -35.1689 -35.1688 -35.1687 -35.1685 -35.1685 -35.1685 -35.1684
   -35.1684 -35.1683 -35.1683 -35.1682 -35.1682 -35.1681 -35.1681 -35.1680
   -35.1679 -35.1678 -35.1677 -35.1677 -35.1673 -35.1672 -35.1669 -35.1663
   -14.2177 -14.2172 -14.2167 -14.2164 -14.2160 -14.2158 -14.2155 -14.2155
   -14.2151 -14.2151 -14.2150 -14.2149 -14.2148 -14.2147 -14.2136 -14.2136
   -14.2134 -14.2132 -14.2123 -14.2119 -14.2113 -14.2109 -14.2105 -14.2105
   -14.2103 -14.2103 -14.2101 -14.2101 -14.2100 -14.2100 -14.2099 -14.2099
   -14.2098 -14.2098 -14.2097 -14.2096 -14.2092 -14.2091 -14.2089 -14.2088
   -14.2087 -14.2086 -14.2085 -14.2085 -14.2084 -14.2083 -14.2083 -14.2082
   -14.2081 -14.2080 -14.2078 -14.2077 -14.2075 -14.2074 -14.2071 -14.2069
   -14.2061 -14.2059 -14.2058 -14.2054 -14.2054 -14.2053 -14.2050 -14.2049
   -14.2047 -14.2045 -14.2042 -14.2038 -14.2036 -14.2032 -14.2027 -14.2023
   -14.1901 -14.1887 -14.1882 -14.1880 -14.1877 -14.1875 -14.1874 -14.1873
   -14.1871 -14.1868 -14.1867 -14.1864 -14.1864 -14.1863 -14.1862 -14.1858
   -14.1853 -14.1852 -14.1847 -14.1846 -14.1845 -14.1843 -14.1841 -14.1841
   -14.1839 -14.1838 -14.1833 -14.1832 -14.1831 -14.1831 -14.1830 -14.1829
   -14.1828 -14.1825 -14.1822 -14.1809 -14.1747 -14.1745 -14.1741 -14.1741
   -14.1729 -14.1728 -14.1723 -14.1723 -14.1720 -14.1720 -14.1719 -14.1717
   -14.1716 -14.1714 -14.1713 -14.1713 -14.1711 -14.1710 -14.1707 -14.1706
   -14.1705 -14.1704 -14.1702 -14.1699 -14.1699 -14.1693 -14.1690 -14.1689
   -14.1686 -14.1684 -14.1683 -14.1678 -14.1657 -14.1656 -14.1650 -14.1650
   -14.1647 -14.1644 -14.1640 -14.1639 -14.1638 -14.1637 -14.1637 -14.1636
   -14.1634 -14.1633 -14.1625 -14.1624 -14.1623 -14.1618 -14.1618 -14.1616
   -14.1599 -14.1598 -14.1596 -14.1593 -14.1592 -14.1591 -14.1584 -14.1582
   -14.1581 -14.1579 -14.1578 -14.1578 -14.1575 -14.1575 -14.1573 -14.1570
   -14.1569 -14.1565 -14.1562 -14.1556  -3.6873  -3.4167  -3.3938  -3.2659
    -3.2657  -3.1593  -3.1041  -3.0552  -3.0550  -3.0521  -3.0519  -2.9813
    -2.9055  -2.8858  -2.8855  -2.8317  -2.8292  -2.8291  -2.7667  -2.7665
    -2.7255  -2.7253  -2.7175  -2.7005  -2.6916  -2.6914  -2.6354  -2.6352
    -2.6000  -2.5789  -2.5787  -2.5651  -2.5650  -2.5470  -2.5400  -2.5398
     3.0347   3.1114   3.3158   3.3159   3.3561   3.4158   3.4159   3.5129
     3.5180   3.5325   3.5325   3.5767   3.5768   3.5985   3.5987   3.6637
     3.6639   3.7404   3.7407   3.7599   3.7599   3.9969   4.0155   4.0155
     4.1875   4.1877   4.2180   4.2183   4.2550   4.2552   4.2647   4.2924
     4.2968   4.2969   4.4119   4.4456   4.4457   4.5008   4.5269   4.5637
     4.5637   4.7611   4.8420   4.8421   4.9665   4.9665   4.9898   4.9901
     5.3061   5.6052   5.6052   5.6401   5.6403   5.7634   5.7749   5.7751
     5.7799   5.7799   5.8695   5.8695   5.9377   5.9378   6.0419   6.0946
     6.0947   6.1030   6.1478   6.1713   6.1714   6.1888   6.1902   6.2427
     6.4061   6.4413   6.4415   6.4459   6.4461   6.4692   6.4776   6.4777
     6.5511   6.6006   6.6241   6.6242   6.6719   6.6721   6.8465   6.9038
     6.9083   6.9146   6.9743   6.9744   7.0205   7.0206   7.0325   7.0453
     7.0455   7.0625   7.0626   7.1983   7.1984   7.2002   7.3072   7.3429
     7.3855   7.5918   7.7817   8.0322   8.3627   8.3936   8.4270   8.4270
     8.7361   8.7361   8.8036   8.8036   8.8590   8.8713   9.0137   9.0138
     9.0379   9.1291   9.1291   9.2095   9.3632   9.4333   9.4333   9.5560
     9.5561   9.5774   9.5774   9.6631   9.7038   9.7538   9.7919   9.8648
     9.9006   9.9234   9.9235   9.9613   9.9613  10.2041  10.2042  10.2431
    10.2432  10.2955  10.2995  10.2995  10.3130  10.3131  10.3968  10.4350
    10.6931  10.6932  10.7170  10.7172  10.7568  10.7704  10.8279  10.8280
    10.8998  10.9261  10.9262  10.9953  11.1226  11.1228  11.1555  11.1558
    11.2236  11.2236  11.2611  11.2640  11.2989  11.2995  11.3584  11.3585
    11.4219  11.7468  11.7521  11.7842  11.7842  11.9057  11.9983  11.9984
    12.0058  12.0058  12.0325  12.0326  12.0333  12.0334  12.0877  12.0926
    12.1100  12.1173  12.1174  12.1201  12.1964  12.1966  12.2064  12.2064
    12.3153  12.3985  12.3986  12.5039  12.5142  12.5143  12.5385  12.5693
    12.5732  12.5933  12.6839  12.6951  12.6951  12.7017  12.7377  12.7378

     occupation numbers 
     1.0000   1.0000   1.0000   1.0000   1.0000   1.0000   1.0000   1.0000
     1.0000   1.0000   1.0000   1.0000   1.0000   1.0000   1.0000   1.0000
     1.0000   1.0000   1.0000   1.0000   1.0000   1.0000   1.0000   1.0000
     1.0000   1.0000   1.0000   1.0000   1.0000   1.0000   1.0000   1.0000
     1.0000   1.0000   1.0000   1.0000   1.0000   1.0000   1.0000   1.0000
     1.0000   1.0000   1.0000   1.0000   1.0000   1.0000   1.0000   1.0000
     1.0000   1.0000   1.0000   1.0000   1.0000   1.0000   1.0000   1.0000
     1.0000   1.0000   1.0000   1.0000   1.0000   1.0000   1.0000   1.0000
     1.0000   1.0000   1.0000   1.0000   1.0000   1.0000   1.0000   1.0000
     1.0000   1.0000   1.0000   1.0000   1.0000   1.0000   1.0000   1.0000
     1.0000   1.0000   1.0000   1.0000   1.0000   1.0000   1.0000   1.0000
     1.0000   1.0000   1.0000   1.0000   1.0000   1.0000   1.0000   1.0000
     1.0000   1.0000   1.0000   1.0000   1.0000   1.0000   1.0000   1.0000
     1.0000   1.0000   1.0000   1.0000   1.0000   1.0000   1.0000   1.0000
     1.0000   1.0000   1.0000   1.0000   1.0000   1.0000   1.0000   1.0000
     1.0000   1.0000   1.0000   1.0000   1.0000   1.0000   1.0000   1.0000
     1.0000   1.0000   1.0000   1.0000   1.0000   1.0000   1.0000   1.0000
     1.0000   1.0000   1.0000   1.0000   1.0000   1.0000   1.0000   1.0000
     1.0000   1.0000   1.0000   1.0000   1.0000   1.0000   1.0000   1.0000
     1.0000   1.0000   1.0000   1.0000   1.0000   1.0000   1.0000   1.0000
     1.0000   1.0000   1.0000   1.0000   1.0000   1.0000   1.0000   1.0000
     1.0000   1.0000   1.0000   1.0000   1.0000   1.0000   1.0000   1.0000
     1.0000   1.0000   1.0000   1.0000   1.0000   1.0000   1.0000   1.0000
     1.0000   1.0000   1.0000   1.0000   1.0000   1.0000   1.0000   1.0000
     1.0000   1.0000   1.0000   1.0000   1.0000   1.0000   1.0000   1.0000
     1.0000   1.0000   1.0000   1.0000   1.0000   1.0000   1.0000   1.0000
     1.0000   1.0000   1.0000   1.0000   1.0000   1.0000   1.0000   1.0000
     1.0000   1.0000   1.0000   1.0000   1.0000   1.0000   1.0000   1.0000
     1.0000   1.0000   1.0000   1.0000   1.0000   1.0000   1.0000   1.0000
     1.0000   1.0000   1.0000   1.0000   1.0000   1.0000   1.0000   1.0000
     1.0000   1.0000   1.0000   1.0000   1.0000   1.0000   1.0000   1.0000
     1.0000   1.0000   1.0000   1.0000   1.0000   1.0000   1.0000   1.0000
     1.0000   1.0000   1.0000   1.0000   1.0000   1.0000   1.0000   1.0000
     1.0000   1.0000   1.0000   1.0000   1.0000   1.0000   1.0000   1.0000
     1.0000   1.0000   1.0000   1.0000   1.0000   1.0000   1.0000   1.0000
     1.0000   1.0000   1.0000   1.0000   1.0000   1.0000   1.0000   1.0000
     1.0000   1.0000   1.0000   1.0000   1.0000   1.0000   1.0000   1.0000
     1.0000   1.0000   1.0000   1.0000   1.0000   1.0000   1.0000   1.0000
     1.0000   1.0000   1.0000   1.0000   1.0000   1.0000   1.0000   1.0000
     1.0000   1.0000   1.0000   1.0000   1.0000   1.0000   1.0000   1.0000
     1.0000   1.0000   1.0000   1.0000   1.0000   1.0000   1.0000   1.0000
     1.0000   1.0000   1.0000   1.0000   1.0000   1.0000   1.0000   1.0000
     1.0000   1.0000   1.0000   1.0000   1.0000   1.0000   1.0000   1.0000
     1.0000   1.0000   1.0000   1.0000   1.0000   1.0000   1.0000   1.0000
     1.0000   1.0000   1.0000   1.0000   1.0000   1.0000   1.0000   1.0000
     1.0000   1.0000   1.0000   1.0000   1.0000   1.0000   1.0000   1.0000
     1.0000   1.0000   1.0000   1.0000   1.0000   1.0000   1.0000   1.0000
     1.0000   1.0000   1.0000   1.0000   1.0000   1.0000   1.0000   1.0000
     1.0000   1.0000   1.0000   1.0000   1.0000   1.0000   1.0000   1.0000
     1.0000   1.0000   1.0000   1.0000   1.0000   1.0000   1.0000   1.0000
     1.0000   1.0000   1.0000   1.0000   1.0000   1.0000   1.0000   1.0000
     1.0000   1.0000   1.0000   1.0000   1.0000   1.0000   1.0000   1.0000
     1.0000   1.0000   1.0000   1.0000   1.0000   1.0000   1.0000   1.0000
     1.0000   1.0000   1.0000   1.0000   1.0000   1.0000   1.0000   1.0000
     1.0000   1.0000   1.0000   1.0000   1.0000   1.0000   1.0000   1.0000
     1.0000   1.0000   1.0000   1.0000   1.0000   1.0000   1.0000   1.0000
     1.0000   1.0000   1.0000   1.0000   1.0000   1.0000   1.0000   1.0000
     1.0000   1.0000   1.0000   1.0000   1.0000   1.0000   1.0000   1.0000
     1.0000   1.0000   1.0000   1.0000   1.0000   1.0000   1.0000   1.0000
     1.0000   1.0000   1.0000   1.0000   1.0000   1.0000   1.0000   1.0000
     1.0000   1.0000   1.0000   1.0000   1.0000   1.0000   1.0000   1.0000
     1.0000   1.0000   1.0000   1.0000   1.0000   1.0000   1.0000   1.0000
     1.0000   1.0000   1.0000   1.0000   1.0000   1.0000   1.0000   1.0000
     1.0000   1.0000   1.0000   1.0000   1.0000   1.0000   1.0000   1.0000
     1.0000   1.0000   1.0000   1.0000   1.0000   1.0000   1.0000   1.0000
     1.0000   1.0000   1.0000   1.0000   1.0000   1.0000   1.0000   1.0000
     1.0000   1.0000   1.0000   1.0000   1.0000   1.0000   1.0000   1.0000
     1.0000   1.0002   1.0301   0.1904  -0.0002  -0.0001  -0.0000  -0.0000
    -0.0000  -0.0000  -0.0000  -0.0000  -0.0000  -0.0000  -0.0000  -0.0000
    -0.0000  -0.0000  -0.0000  -0.0000  -0.0000  -0.0000  -0.0000  -0.0000
    -0.0000  -0.0000  -0.0000  -0.0000  -0.0000  -0.0000  -0.0000  -0.0000
    -0.0000  -0.0000  -0.0000  -0.0000  -0.0000  -0.0000  -0.0000  -0.0000
    -0.0000  -0.0000  -0.0000  -0.0000  -0.0000  -0.0000  -0.0000  -0.0000
    -0.0000  -0.0000  -0.0000  -0.0000  -0.0000  -0.0000  -0.0000  -0.0000
    -0.0000  -0.0000  -0.0000  -0.0000  -0.0000  -0.0000  -0.0000  -0.0000
    -0.0000  -0.0000  -0.0000  -0.0000  -0.0000  -0.0000  -0.0000  -0.0000
    -0.0000  -0.0000  -0.0000  -0.0000  -0.0000  -0.0000  -0.0000  -0.0000
    -0.0000  -0.0000  -0.0000  -0.0000  -0.0000  -0.0000  -0.0000  -0.0000
    -0.0000  -0.0000  -0.0000  -0.0000  -0.0000  -0.0000  -0.0000  -0.0000
    -0.0000  -0.0000  -0.0000  -0.0000  -0.0000  -0.0000  -0.0000  -0.0000
    -0.0000  -0.0000  -0.0000  -0.0000  -0.0000  -0.0000  -0.0000  -0.0000

          k = 0.0000-0.2887 0.2373 (554660 PWs)   bands (ev):

   -68.2851 -68.2849 -68.2848 -68.2848 -68.2846 -68.2846 -68.2846 -68.2846
   -68.2846 -68.2846 -68.2846 -68.2846 -68.2846 -68.2845 -68.2844 -68.2844
   -68.2842 -68.2841 -67.7467 -67.7456 -67.7455 -67.7452 -67.7448 -67.7446
   -67.7446 -67.7445 -67.7444 -67.7444 -67.7443 -67.7443 -67.7442 -67.7441
   -67.7441 -67.7441 -67.7441 -67.7440 -67.7439 -67.7439 -67.7438 -67.7438
   -67.7438 -67.7437 -67.7436 -67.7436 -67.7435 -67.7435 -67.7434 -67.7433
   -67.7433 -67.7431 -67.7428 -67.7424 -67.7423 -67.7412 -35.6961 -35.6960
   -35.6959 -35.6959 -35.6957 -35.6957 -35.6957 -35.6957 -35.6956 -35.6956
   -35.6956 -35.6956 -35.6956 -35.6956 -35.6954 -35.6954 -35.6953 -35.6952
   -35.6912 -35.6912 -35.6911 -35.6911 -35.6910 -35.6910 -35.6910 -35.6909
   -35.6908 -35.6908 -35.6908 -35.6908 -35.6908 -35.6908 -35.6908 -35.6907
   -35.6907 -35.6907 -35.6907 -35.6907 -35.6907 -35.6907 -35.6907 -35.6907
   -35.6907 -35.6907 -35.6906 -35.6906 -35.6905 -35.6905 -35.6905 -35.6905
   -35.6904 -35.6903 -35.6903 -35.6902 -35.1792 -35.1789 -35.1784 -35.1783
   -35.1782 -35.1781 -35.1779 -35.1778 -35.1777 -35.1776 -35.1776 -35.1774
   -35.1774 -35.1774 -35.1774 -35.1774 -35.1773 -35.1772 -35.1771 -35.1771
   -35.1771 -35.1771 -35.1771 -35.1770 -35.1770 -35.1769 -35.1768 -35.1768
   -35.1768 -35.1768 -35.1766 -35.1765 -35.1764 -35.1764 -35.1763 -35.1763
   -35.1762 -35.1761 -35.1760 -35.1759 -35.1758 -35.1758 -35.1758 -35.1757
   -35.1755 -35.1753 -35.1752 -35.1751 -35.1749 -35.1747 -35.1745 -35.1744
   -35.1742 -35.1733 -35.1720 -35.1716 -35.1714 -35.1712 -35.1712 -35.1710
   -35.1709 -35.1707 -35.1706 -35.1706 -35.1705 -35.1704 -35.1704 -35.1704
   -35.1703 -35.1702 -35.1701 -35.1701 -35.1699 -35.1698 -35.1698 -35.1696
   -35.1696 -35.1695 -35.1694 -35.1693 -35.1692 -35.1691 -35.1691 -35.1690
   -35.1689 -35.1688 -35.1687 -35.1687 -35.1686 -35.1686 -35.1685 -35.1684
   -35.1684 -35.1683 -35.1683 -35.1682 -35.1682 -35.1681 -35.1681 -35.1680
   -35.1680 -35.1678 -35.1677 -35.1676 -35.1673 -35.1672 -35.1669 -35.1663
   -14.2175 -14.2173 -14.2167 -14.2166 -14.2160 -14.2158 -14.2155 -14.2154
   -14.2152 -14.2150 -14.2148 -14.2147 -14.2146 -14.2145 -14.2139 -14.2137
   -14.2137 -14.2127 -14.2124 -14.2121 -14.2114 -14.2111 -14.2107 -14.2106
   -14.2104 -14.2103 -14.2102 -14.2100 -14.2099 -14.2098 -14.2097 -14.2097
   -14.2096 -14.2095 -14.2094 -14.2094 -14.2093 -14.2091 -14.2091 -14.2088
   -14.2088 -14.2087 -14.2086 -14.2086 -14.2085 -14.2084 -14.2083 -14.2082
   -14.2080 -14.2080 -14.2079 -14.2078 -14.2076 -14.2073 -14.2072 -14.2070
   -14.2065 -14.2062 -14.2060 -14.2054 -14.2050 -14.2049 -14.2048 -14.2046
   -14.2045 -14.2044 -14.2043 -14.2040 -14.2037 -14.2034 -14.2028 -14.2023
   -14.1901 -14.1887 -14.1884 -14.1878 -14.1876 -14.1875 -14.1873 -14.1873
   -14.1870 -14.1869 -14.1868 -14.1868 -14.1865 -14.1863 -14.1862 -14.1858
   -14.1852 -14.1851 -14.1848 -14.1847 -14.1846 -14.1843 -14.1841 -14.1840
   -14.1838 -14.1838 -14.1834 -14.1832 -14.1831 -14.1831 -14.1829 -14.1828
   -14.1827 -14.1824 -14.1823 -14.1808 -14.1747 -14.1745 -14.1741 -14.1740
   -14.1731 -14.1728 -14.1724 -14.1722 -14.1720 -14.1719 -14.1719 -14.1716
   -14.1716 -14.1715 -14.1714 -14.1712 -14.1711 -14.1709 -14.1709 -14.1707
   -14.1705 -14.1703 -14.1701 -14.1700 -14.1698 -14.1696 -14.1692 -14.1687
   -14.1687 -14.1685 -14.1683 -14.1674 -14.1657 -14.1655 -14.1652 -14.1649
   -14.1648 -14.1643 -14.1642 -14.1641 -14.1638 -14.1638 -14.1635 -14.1635
   -14.1632 -14.1628 -14.1627 -14.1625 -14.1623 -14.1620 -14.1619 -14.1614
   -14.1601 -14.1598 -14.1594 -14.1593 -14.1591 -14.1589 -14.1584 -14.1582
   -14.1580 -14.1579 -14.1578 -14.1577 -14.1576 -14.1574 -14.1573 -14.1571
   -14.1568 -14.1565 -14.1561 -14.1559  -3.6617  -3.4845  -3.3719  -3.2449
    -3.2444  -3.2168  -3.1068  -3.1063  -3.0399  -3.0395  -3.0200  -2.9655
    -2.9255  -2.9250  -2.8716  -2.8382  -2.7672  -2.7668  -2.7609  -2.7588
    -2.7584  -2.7101  -2.7097  -2.6841  -2.6837  -2.6594  -2.6321  -2.6198
    -2.6194  -2.5943  -2.5939  -2.5843  -2.5839  -2.5640  -2.5573  -2.5569
     3.0859   3.1504   3.3185   3.3738   3.3741   3.4241   3.4241   3.4352
     3.4352   3.5257   3.5334   3.5336   3.6342   3.6342   3.6425   3.6875
     3.6879   3.6986   3.6989   3.7585   3.7589   3.9302   3.9790   4.0778
     4.0784   4.1032   4.2052   4.2054   4.2139   4.2139   4.2206   4.2207
     4.2562   4.2563   4.3349   4.4234   4.4234   4.5866   4.6459   4.6463
     4.6475   4.8386   4.8388   5.0942   5.0943   5.2380   5.2868   5.2873
     5.3641   5.4018   5.4021   5.5334   5.5337   5.5822   5.5969   5.5970
     5.6543   5.6543   5.7032   5.7973   5.9164   5.9166   5.9782   5.9786
     6.0303   6.0307   6.0754   6.1038   6.1038   6.2347   6.3662   6.3662
     6.3730   6.3979   6.4586   6.4970   6.4970   6.5021   6.5025   6.5799
     6.5801   6.7022   6.7080   6.7375   6.7407   6.7774   6.8616   6.9223
     6.9225   7.0086   7.0089   7.0132   7.0136   7.0142   7.0146   7.0680
     7.0682   7.0998   7.1341   7.2223   7.2284   7.2286   7.2842   7.3842
     7.4061   7.4844   7.7520   7.7712   7.9505   8.3881   8.6285   8.6286
     8.6964   8.6964   8.7017   8.7018   8.8258   9.0762   9.0762   9.1388
     9.1659   9.2491   9.2492   9.2773   9.2774   9.3594   9.3974   9.3995
     9.3995   9.4331   9.5560   9.6366   9.6874   9.7382   9.7741   9.7742
     9.9299   9.9300   9.9644   9.9647  10.0370  10.0372  10.1722  10.1723
    10.3041  10.3043  10.3879  10.3879  10.4145  10.4760  10.4882  10.4882
    10.5566  10.5583  10.5929  10.6872  10.6876  10.8210  10.8212  10.8237
    11.0362  11.0653  11.0653  11.0903  11.1102  11.2944  11.3403  11.3404
    11.3570  11.3781  11.3781  11.4121  11.4122  11.4825  11.4827  11.5554
    11.5562  11.6051  11.6256  11.6258  11.6589  11.6591  11.7523  11.8210
    11.8768  11.9138  11.9141  11.9216  11.9216  11.9530  11.9964  12.0143
    12.0144  12.0511  12.0514  12.1216  12.1220  12.1311  12.1770  12.1771
    12.1827  12.2099  12.2228  12.2320  12.2323  12.3842  12.3845  12.4252
    12.4858  12.5890  12.6069  12.6558  12.6558  12.7595  12.7596  12.8983

     occupation numbers 
     1.0000   1.0000   1.0000   1.0000   1.0000   1.0000   1.0000   1.0000
     1.0000   1.0000   1.0000   1.0000   1.0000   1.0000   1.0000   1.0000
     1.0000   1.0000   1.0000   1.0000   1.0000   1.0000   1.0000   1.0000
     1.0000   1.0000   1.0000   1.0000   1.0000   1.0000   1.0000   1.0000
     1.0000   1.0000   1.0000   1.0000   1.0000   1.0000   1.0000   1.0000
     1.0000   1.0000   1.0000   1.0000   1.0000   1.0000   1.0000   1.0000
     1.0000   1.0000   1.0000   1.0000   1.0000   1.0000   1.0000   1.0000
     1.0000   1.0000   1.0000   1.0000   1.0000   1.0000   1.0000   1.0000
     1.0000   1.0000   1.0000   1.0000   1.0000   1.0000   1.0000   1.0000
     1.0000   1.0000   1.0000   1.0000   1.0000   1.0000   1.0000   1.0000
     1.0000   1.0000   1.0000   1.0000   1.0000   1.0000   1.0000   1.0000
     1.0000   1.0000   1.0000   1.0000   1.0000   1.0000   1.0000   1.0000
     1.0000   1.0000   1.0000   1.0000   1.0000   1.0000   1.0000   1.0000
     1.0000   1.0000   1.0000   1.0000   1.0000   1.0000   1.0000   1.0000
     1.0000   1.0000   1.0000   1.0000   1.0000   1.0000   1.0000   1.0000
     1.0000   1.0000   1.0000   1.0000   1.0000   1.0000   1.0000   1.0000
     1.0000   1.0000   1.0000   1.0000   1.0000   1.0000   1.0000   1.0000
     1.0000   1.0000   1.0000   1.0000   1.0000   1.0000   1.0000   1.0000
     1.0000   1.0000   1.0000   1.0000   1.0000   1.0000   1.0000   1.0000
     1.0000   1.0000   1.0000   1.0000   1.0000   1.0000   1.0000   1.0000
     1.0000   1.0000   1.0000   1.0000   1.0000   1.0000   1.0000   1.0000
     1.0000   1.0000   1.0000   1.0000   1.0000   1.0000   1.0000   1.0000
     1.0000   1.0000   1.0000   1.0000   1.0000   1.0000   1.0000   1.0000
     1.0000   1.0000   1.0000   1.0000   1.0000   1.0000   1.0000   1.0000
     1.0000   1.0000   1.0000   1.0000   1.0000   1.0000   1.0000   1.0000
     1.0000   1.0000   1.0000   1.0000   1.0000   1.0000   1.0000   1.0000
     1.0000   1.0000   1.0000   1.0000   1.0000   1.0000   1.0000   1.0000
     1.0000   1.0000   1.0000   1.0000   1.0000   1.0000   1.0000   1.0000
     1.0000   1.0000   1.0000   1.0000   1.0000   1.0000   1.0000   1.0000
     1.0000   1.0000   1.0000   1.0000   1.0000   1.0000   1.0000   1.0000
     1.0000   1.0000   1.0000   1.0000   1.0000   1.0000   1.0000   1.0000
     1.0000   1.0000   1.0000   1.0000   1.0000   1.0000   1.0000   1.0000
     1.0000   1.0000   1.0000   1.0000   1.0000   1.0000   1.0000   1.0000
     1.0000   1.0000   1.0000   1.0000   1.0000   1.0000   1.0000   1.0000
     1.0000   1.0000   1.0000   1.0000   1.0000   1.0000   1.0000   1.0000
     1.0000   1.0000   1.0000   1.0000   1.0000   1.0000   1.0000   1.0000
     1.0000   1.0000   1.0000   1.0000   1.0000   1.0000   1.0000   1.0000
     1.0000   1.0000   1.0000   1.0000   1.0000   1.0000   1.0000   1.0000
     1.0000   1.0000   1.0000   1.0000   1.0000   1.0000   1.0000   1.0000
     1.0000   1.0000   1.0000   1.0000   1.0000   1.0000   1.0000   1.0000
     1.0000   1.0000   1.0000   1.0000   1.0000   1.0000   1.0000   1.0000
     1.0000   1.0000   1.0000   1.0000   1.0000   1.0000   1.0000   1.0000
     1.0000   1.0000   1.0000   1.0000   1.0000   1.0000   1.0000   1.0000
     1.0000   1.0000   1.0000   1.0000   1.0000   1.0000   1.0000   1.0000
     1.0000   1.0000   1.0000   1.0000   1.0000   1.0000   1.0000   1.0000
     1.0000   1.0000   1.0000   1.0000   1.0000   1.0000   1.0000   1.0000
     1.0000   1.0000   1.0000   1.0000   1.0000   1.0000   1.0000   1.0000
     1.0000   1.0000   1.0000   1.0000   1.0000   1.0000   1.0000   1.0000
     1.0000   1.0000   1.0000   1.0000   1.0000   1.0000   1.0000   1.0000
     1.0000   1.0000   1.0000   1.0000   1.0000   1.0000   1.0000   1.0000
     1.0000   1.0000   1.0000   1.0000   1.0000   1.0000   1.0000   1.0000
     1.0000   1.0000   1.0000   1.0000   1.0000   1.0000   1.0000   1.0000
     1.0000   1.0000   1.0000   1.0000   1.0000   1.0000   1.0000   1.0000
     1.0000   1.0000   1.0000   1.0000   1.0000   1.0000   1.0000   1.0000
     1.0000   1.0000   1.0000   1.0000   1.0000   1.0000   1.0000   1.0000
     1.0000   1.0000   1.0000   1.0000   1.0000   1.0000   1.0000   1.0000
     1.0000   1.0000   1.0000   1.0000   1.0000   1.0000   1.0000   1.0000
     1.0000   1.0000   1.0000   1.0000   1.0000   1.0000   1.0000   1.0000
     1.0000   1.0000   1.0000   1.0000   1.0000   1.0000   1.0000   1.0000
     1.0000   1.0000   1.0000   1.0000   1.0000   1.0000   1.0000   1.0000
     1.0000   1.0000   1.0000   1.0000   1.0000   1.0000   1.0000   1.0000
     1.0000   1.0000   1.0000   1.0000   1.0000   1.0000   1.0000   1.0000
     1.0000   1.0000   1.0000   1.0000   1.0000   1.0000   1.0000   1.0000
     1.0000   1.0000   1.0000   1.0000   1.0000   1.0000   1.0000   1.0000
     1.0000   1.0000   1.0000   1.0000   1.0000   1.0000   1.0000   1.0000
     1.0000   1.0000   1.0000   1.0000   1.0000   1.0000   1.0000   1.0000
     1.0000   1.0000   1.0000   1.0000   1.0000   1.0000   1.0000   1.0000
     1.0000   1.0000   1.0203   1.0268   0.6664  -0.0001  -0.0000  -0.0000
    -0.0000  -0.0000  -0.0000  -0.0000  -0.0000  -0.0000  -0.0000  -0.0000
    -0.0000  -0.0000  -0.0000  -0.0000  -0.0000  -0.0000  -0.0000  -0.0000
    -0.0000  -0.0000  -0.0000  -0.0000  -0.0000  -0.0000  -0.0000  -0.0000
    -0.0000  -0.0000  -0.0000  -0.0000  -0.0000  -0.0000  -0.0000  -0.0000
    -0.0000  -0.0000  -0.0000  -0.0000  -0.0000  -0.0000  -0.0000  -0.0000
    -0.0000  -0.0000  -0.0000  -0.0000  -0.0000  -0.0000  -0.0000  -0.0000
    -0.0000  -0.0000  -0.0000  -0.0000  -0.0000  -0.0000  -0.0000  -0.0000
    -0.0000  -0.0000  -0.0000  -0.0000  -0.0000  -0.0000  -0.0000  -0.0000
    -0.0000  -0.0000  -0.0000  -0.0000  -0.0000  -0.0000  -0.0000  -0.0000
    -0.0000  -0.0000  -0.0000  -0.0000  -0.0000  -0.0000  -0.0000  -0.0000
    -0.0000  -0.0000  -0.0000  -0.0000  -0.0000  -0.0000  -0.0000  -0.0000
    -0.0000  -0.0000  -0.0000  -0.0000  -0.0000  -0.0000  -0.0000  -0.0000
    -0.0000  -0.0000  -0.0000  -0.0000  -0.0000  -0.0000  -0.0000  -0.0000

          k =-0.2500 0.1443 0.2373 (554660 PWs)   bands (ev):

   -68.2851 -68.2849 -68.2848 -68.2848 -68.2846 -68.2846 -68.2846 -68.2846
   -68.2846 -68.2846 -68.2846 -68.2846 -68.2846 -68.2845 -68.2844 -68.2844
   -68.2842 -68.2841 -67.7467 -67.7456 -67.7455 -67.7452 -67.7448 -67.7446
   -67.7446 -67.7445 -67.7444 -67.7444 -67.7443 -67.7443 -67.7442 -67.7441
   -67.7441 -67.7441 -67.7441 -67.7440 -67.7439 -67.7439 -67.7438 -67.7438
   -67.7438 -67.7437 -67.7436 -67.7436 -67.7435 -67.7435 -67.7434 -67.7433
   -67.7433 -67.7431 -67.7428 -67.7424 -67.7423 -67.7412 -35.6961 -35.6960
   -35.6959 -35.6959 -35.6957 -35.6957 -35.6957 -35.6957 -35.6956 -35.6956
   -35.6956 -35.6956 -35.6956 -35.6956 -35.6954 -35.6954 -35.6953 -35.6952
   -35.6912 -35.6912 -35.6911 -35.6911 -35.6910 -35.6910 -35.6910 -35.6909
   -35.6908 -35.6908 -35.6908 -35.6908 -35.6908 -35.6908 -35.6907 -35.6907
   -35.6907 -35.6907 -35.6907 -35.6907 -35.6907 -35.6907 -35.6907 -35.6907
   -35.6907 -35.6907 -35.6906 -35.6906 -35.6905 -35.6905 -35.6905 -35.6905
   -35.6904 -35.6903 -35.6903 -35.6902 -35.1792 -35.1789 -35.1784 -35.1783
   -35.1782 -35.1781 -35.1779 -35.1778 -35.1777 -35.1776 -35.1775 -35.1775
   -35.1774 -35.1774 -35.1774 -35.1773 -35.1772 -35.1772 -35.1771 -35.1771
   -35.1771 -35.1771 -35.1771 -35.1770 -35.1770 -35.1769 -35.1769 -35.1768
   -35.1768 -35.1767 -35.1766 -35.1765 -35.1764 -35.1764 -35.1763 -35.1762
   -35.1762 -35.1761 -35.1760 -35.1759 -35.1758 -35.1758 -35.1757 -35.1757
   -35.1755 -35.1753 -35.1752 -35.1751 -35.1749 -35.1747 -35.1746 -35.1744
   -35.1742 -35.1733 -35.1720 -35.1716 -35.1715 -35.1712 -35.1712 -35.1710
   -35.1709 -35.1707 -35.1706 -35.1705 -35.1705 -35.1704 -35.1704 -35.1704
   -35.1703 -35.1702 -35.1701 -35.1701 -35.1700 -35.1698 -35.1698 -35.1696
   -35.1696 -35.1695 -35.1694 -35.1694 -35.1692 -35.1691 -35.1691 -35.1690
   -35.1689 -35.1689 -35.1687 -35.1687 -35.1686 -35.1686 -35.1685 -35.1684
   -35.1684 -35.1683 -35.1682 -35.1682 -35.1682 -35.1682 -35.1681 -35.1680
   -35.1680 -35.1678 -35.1677 -35.1676 -35.1673 -35.1672 -35.1669 -35.1663
   -14.2177 -14.2171 -14.2168 -14.2166 -14.2160 -14.2159 -14.2155 -14.2154
   -14.2152 -14.2150 -14.2148 -14.2147 -14.2146 -14.2145 -14.2139 -14.2138
   -14.2137 -14.2127 -14.2124 -14.2121 -14.2115 -14.2112 -14.2107 -14.2105
   -14.2104 -14.2103 -14.2102 -14.2099 -14.2099 -14.2098 -14.2098 -14.2096
   -14.2096 -14.2095 -14.2094 -14.2094 -14.2092 -14.2091 -14.2090 -14.2088
   -14.2088 -14.2087 -14.2086 -14.2085 -14.2085 -14.2084 -14.2083 -14.2081
   -14.2080 -14.2080 -14.2079 -14.2078 -14.2076 -14.2073 -14.2072 -14.2070
   -14.2065 -14.2062 -14.2060 -14.2054 -14.2050 -14.2049 -14.2048 -14.2046
   -14.2044 -14.2044 -14.2043 -14.2040 -14.2038 -14.2034 -14.2026 -14.2024
   -14.1901 -14.1887 -14.1884 -14.1878 -14.1876 -14.1874 -14.1873 -14.1872
   -14.1870 -14.1869 -14.1868 -14.1867 -14.1865 -14.1863 -14.1862 -14.1858
   -14.1852 -14.1851 -14.1848 -14.1847 -14.1846 -14.1843 -14.1841 -14.1840
   -14.1839 -14.1838 -14.1834 -14.1832 -14.1832 -14.1830 -14.1829 -14.1828
   -14.1827 -14.1824 -14.1823 -14.1809 -14.1747 -14.1745 -14.1741 -14.1740
   -14.1731 -14.1728 -14.1723 -14.1722 -14.1720 -14.1719 -14.1718 -14.1716
   -14.1716 -14.1715 -14.1714 -14.1712 -14.1711 -14.1709 -14.1708 -14.1707
   -14.1705 -14.1703 -14.1701 -14.1701 -14.1698 -14.1696 -14.1691 -14.1687
   -14.1687 -14.1685 -14.1683 -14.1674 -14.1657 -14.1656 -14.1652 -14.1649
   -14.1648 -14.1644 -14.1643 -14.1640 -14.1638 -14.1638 -14.1635 -14.1635
   -14.1632 -14.1629 -14.1627 -14.1625 -14.1623 -14.1620 -14.1619 -14.1614
   -14.1601 -14.1598 -14.1594 -14.1593 -14.1590 -14.1590 -14.1584 -14.1582
   -14.1580 -14.1580 -14.1578 -14.1577 -14.1576 -14.1575 -14.1573 -14.1571
   -14.1568 -14.1565 -14.1561 -14.1558  -3.6617  -3.4845  -3.3719  -3.2448
    -3.2446  -3.2168  -3.1067  -3.1064  -3.0398  -3.0396  -3.0200  -2.9655
    -2.9254  -2.9252  -2.8716  -2.8382  -2.7671  -2.7669  -2.7609  -2.7587
    -2.7585  -2.7100  -2.7098  -2.6840  -2.6838  -2.6594  -2.6321  -2.6197
    -2.6195  -2.5942  -2.5940  -2.5842  -2.5840  -2.5640  -2.5572  -2.5570
     3.0859   3.1504   3.3185   3.3739   3.3740   3.4241   3.4241   3.4352
     3.4352   3.5258   3.5335   3.5336   3.6341   3.6342   3.6425   3.6876
     3.6878   3.6987   3.6989   3.7586   3.7588   3.9302   3.9790   4.0780
     4.0782   4.1032   4.2053   4.2054   4.2139   4.2139   4.2206   4.2207
     4.2562   4.2563   4.3349   4.4234   4.4234   4.5866   4.6460   4.6462
     4.6475   4.8386   4.8387   5.0942   5.0943   5.2380   5.2870   5.2872
     5.3641   5.4018   5.4020   5.5335   5.5337   5.5822   5.5969   5.5970
     5.6543   5.6543   5.7032   5.7973   5.9164   5.9165   5.9783   5.9785
     6.0304   6.0306   6.0754   6.1038   6.1038   6.2347   6.3662   6.3662
     6.3730   6.3979   6.4586   6.4970   6.4970   6.5022   6.5024   6.5799
     6.5801   6.7022   6.7080   6.7375   6.7407   6.7774   6.8616   6.9224
     6.9225   7.0087   7.0088   7.0134   7.0136   7.0142   7.0144   7.0681
     7.0682   7.0998   7.1341   7.2223   7.2285   7.2285   7.2842   7.3842
     7.4061   7.4844   7.7520   7.7712   7.9505   8.3881   8.6285   8.6285
     8.6964   8.6964   8.7017   8.7018   8.8258   9.0762   9.0762   9.1388
     9.1659   9.2491   9.2491   9.2773   9.2773   9.3594   9.3974   9.3995
     9.3995   9.4331   9.5560   9.6366   9.6874   9.7382   9.7741   9.7742
     9.9299   9.9300   9.9645   9.9646  10.0370  10.0371  10.1722  10.1723
    10.3042  10.3043  10.3879  10.3879  10.4145  10.4760  10.4882  10.4882
    10.5565  10.5583  10.5929  10.6873  10.6875  10.8211  10.8211  10.8237
    11.0362  11.0653  11.0653  11.0903  11.1102  11.2944  11.3403  11.3404
    11.3570  11.3781  11.3781  11.4121  11.4122  11.4825  11.4827  11.5554
    11.5562  11.6051  11.6257  11.6258  11.6589  11.6590  11.7523  11.8209
    11.8768  11.9138  11.9140  11.9216  11.9216  11.9530  11.9964  12.0143
    12.0143  12.0512  12.0513  12.1217  12.1219  12.1311  12.1770  12.1771
    12.1827  12.2099  12.2228  12.2320  12.2322  12.3843  12.3844  12.4252
    12.4858  12.5890  12.6069  12.6558  12.6558  12.7595  12.7596  12.8492

     occupation numbers 
     1.0000   1.0000   1.0000   1.0000   1.0000   1.0000   1.0000   1.0000
     1.0000   1.0000   1.0000   1.0000   1.0000   1.0000   1.0000   1.0000
     1.0000   1.0000   1.0000   1.0000   1.0000   1.0000   1.0000   1.0000
     1.0000   1.0000   1.0000   1.0000   1.0000   1.0000   1.0000   1.0000
     1.0000   1.0000   1.0000   1.0000   1.0000   1.0000   1.0000   1.0000
     1.0000   1.0000   1.0000   1.0000   1.0000   1.0000   1.0000   1.0000
     1.0000   1.0000   1.0000   1.0000   1.0000   1.0000   1.0000   1.0000
     1.0000   1.0000   1.0000   1.0000   1.0000   1.0000   1.0000   1.0000
     1.0000   1.0000   1.0000   1.0000   1.0000   1.0000   1.0000   1.0000
     1.0000   1.0000   1.0000   1.0000   1.0000   1.0000   1.0000   1.0000
     1.0000   1.0000   1.0000   1.0000   1.0000   1.0000   1.0000   1.0000
     1.0000   1.0000   1.0000   1.0000   1.0000   1.0000   1.0000   1.0000
     1.0000   1.0000   1.0000   1.0000   1.0000   1.0000   1.0000   1.0000
     1.0000   1.0000   1.0000   1.0000   1.0000   1.0000   1.0000   1.0000
     1.0000   1.0000   1.0000   1.0000   1.0000   1.0000   1.0000   1.0000
     1.0000   1.0000   1.0000   1.0000   1.0000   1.0000   1.0000   1.0000
     1.0000   1.0000   1.0000   1.0000   1.0000   1.0000   1.0000   1.0000
     1.0000   1.0000   1.0000   1.0000   1.0000   1.0000   1.0000   1.0000
     1.0000   1.0000   1.0000   1.0000   1.0000   1.0000   1.0000   1.0000
     1.0000   1.0000   1.0000   1.0000   1.0000   1.0000   1.0000   1.0000
     1.0000   1.0000   1.0000   1.0000   1.0000   1.0000   1.0000   1.0000
     1.0000   1.0000   1.0000   1.0000   1.0000   1.0000   1.0000   1.0000
     1.0000   1.0000   1.0000   1.0000   1.0000   1.0000   1.0000   1.0000
     1.0000   1.0000   1.0000   1.0000   1.0000   1.0000   1.0000   1.0000
     1.0000   1.0000   1.0000   1.0000   1.0000   1.0000   1.0000   1.0000
     1.0000   1.0000   1.0000   1.0000   1.0000   1.0000   1.0000   1.0000
     1.0000   1.0000   1.0000   1.0000   1.0000   1.0000   1.0000   1.0000
     1.0000   1.0000   1.0000   1.0000   1.0000   1.0000   1.0000   1.0000
     1.0000   1.0000   1.0000   1.0000   1.0000   1.0000   1.0000   1.0000
     1.0000   1.0000   1.0000   1.0000   1.0000   1.0000   1.0000   1.0000
     1.0000   1.0000   1.0000   1.0000   1.0000   1.0000   1.0000   1.0000
     1.0000   1.0000   1.0000   1.0000   1.0000   1.0000   1.0000   1.0000
     1.0000   1.0000   1.0000   1.0000   1.0000   1.0000   1.0000   1.0000
     1.0000   1.0000   1.0000   1.0000   1.0000   1.0000   1.0000   1.0000
     1.0000   1.0000   1.0000   1.0000   1.0000   1.0000   1.0000   1.0000
     1.0000   1.0000   1.0000   1.0000   1.0000   1.0000   1.0000   1.0000
     1.0000   1.0000   1.0000   1.0000   1.0000   1.0000   1.0000   1.0000
     1.0000   1.0000   1.0000   1.0000   1.0000   1.0000   1.0000   1.0000
     1.0000   1.0000   1.0000   1.0000   1.0000   1.0000   1.0000   1.0000
     1.0000   1.0000   1.0000   1.0000   1.0000   1.0000   1.0000   1.0000
     1.0000   1.0000   1.0000   1.0000   1.0000   1.0000   1.0000   1.0000
     1.0000   1.0000   1.0000   1.0000   1.0000   1.0000   1.0000   1.0000
     1.0000   1.0000   1.0000   1.0000   1.0000   1.0000   1.0000   1.0000
     1.0000   1.0000   1.0000   1.0000   1.0000   1.0000   1.0000   1.0000
     1.0000   1.0000   1.0000   1.0000   1.0000   1.0000   1.0000   1.0000
     1.0000   1.0000   1.0000   1.0000   1.0000   1.0000   1.0000   1.0000
     1.0000   1.0000   1.0000   1.0000   1.0000   1.0000   1.0000   1.0000
     1.0000   1.0000   1.0000   1.0000   1.0000   1.0000   1.0000   1.0000
     1.0000   1.0000   1.0000   1.0000   1.0000   1.0000   1.0000   1.0000
     1.0000   1.0000   1.0000   1.0000   1.0000   1.0000   1.0000   1.0000
     1.0000   1.0000   1.0000   1.0000   1.0000   1.0000   1.0000   1.0000
     1.0000   1.0000   1.0000   1.0000   1.0000   1.0000   1.0000   1.0000
     1.0000   1.0000   1.0000   1.0000   1.0000   1.0000   1.0000   1.0000
     1.0000   1.0000   1.0000   1.0000   1.0000   1.0000   1.0000   1.0000
     1.0000   1.0000   1.0000   1.0000   1.0000   1.0000   1.0000   1.0000
     1.0000   1.0000   1.0000   1.0000   1.0000   1.0000   1.0000   1.0000
     1.0000   1.0000   1.0000   1.0000   1.0000   1.0000   1.0000   1.0000
     1.0000   1.0000   1.0000   1.0000   1.0000   1.0000   1.0000   1.0000
     1.0000   1.0000   1.0000   1.0000   1.0000   1.0000   1.0000   1.0000
     1.0000   1.0000   1.0000   1.0000   1.0000   1.0000   1.0000   1.0000
     1.0000   1.0000   1.0000   1.0000   1.0000   1.0000   1.0000   1.0000
     1.0000   1.0000   1.0000   1.0000   1.0000   1.0000   1.0000   1.0000
     1.0000   1.0000   1.0000   1.0000   1.0000   1.0000   1.0000   1.0000
     1.0000   1.0000   1.0000   1.0000   1.0000   1.0000   1.0000   1.0000
     1.0000   1.0000   1.0000   1.0000   1.0000   1.0000   1.0000   1.0000
     1.0000   1.0000   1.0000   1.0000   1.0000   1.0000   1.0000   1.0000
     1.0000   1.0000   1.0000   1.0000   1.0000   1.0000   1.0000   1.0000
     1.0000   1.0000   1.0203   1.0268   0.6664  -0.0001  -0.0000  -0.0000
    -0.0000  -0.0000  -0.0000  -0.0000  -0.0000  -0.0000  -0.0000  -0.0000
    -0.0000  -0.0000  -0.0000  -0.0000  -0.0000  -0.0000  -0.0000  -0.0000
    -0.0000  -0.0000  -0.0000  -0.0000  -0.0000  -0.0000  -0.0000  -0.0000
    -0.0000  -0.0000  -0.0000  -0.0000  -0.0000  -0.0000  -0.0000  -0.0000
    -0.0000  -0.0000  -0.0000  -0.0000  -0.0000  -0.0000  -0.0000  -0.0000
    -0.0000  -0.0000  -0.0000  -0.0000  -0.0000  -0.0000  -0.0000  -0.0000
    -0.0000  -0.0000  -0.0000  -0.0000  -0.0000  -0.0000  -0.0000  -0.0000
    -0.0000  -0.0000  -0.0000  -0.0000  -0.0000  -0.0000  -0.0000  -0.0000
    -0.0000  -0.0000  -0.0000  -0.0000  -0.0000  -0.0000  -0.0000  -0.0000
    -0.0000  -0.0000  -0.0000  -0.0000  -0.0000  -0.0000  -0.0000  -0.0000
    -0.0000  -0.0000  -0.0000  -0.0000  -0.0000  -0.0000  -0.0000  -0.0000
    -0.0000  -0.0000  -0.0000  -0.0000  -0.0000  -0.0000  -0.0000  -0.0000
    -0.0000  -0.0000  -0.0000  -0.0000  -0.0000  -0.0000  -0.0000  -0.0000

          k = 0.2500 0.1443 0.2373 (554660 PWs)   bands (ev):

   -68.2851 -68.2849 -68.2848 -68.2848 -68.2846 -68.2846 -68.2846 -68.2846
   -68.2846 -68.2846 -68.2846 -68.2846 -68.2846 -68.2845 -68.2844 -68.2844
   -68.2842 -68.2841 -67.7467 -67.7456 -67.7455 -67.7452 -67.7448 -67.7446
   -67.7446 -67.7445 -67.7444 -67.7444 -67.7444 -67.7443 -67.7442 -67.7442
   -67.7441 -67.7441 -67.7440 -67.7440 -67.7439 -67.7439 -67.7438 -67.7438
   -67.7438 -67.7437 -67.7436 -67.7436 -67.7435 -67.7435 -67.7434 -67.7433
   -67.7433 -67.7431 -67.7428 -67.7424 -67.7423 -67.7412 -35.6961 -35.6960
   -35.6959 -35.6959 -35.6957 -35.6957 -35.6957 -35.6957 -35.6956 -35.6956
   -35.6956 -35.6956 -35.6956 -35.6956 -35.6954 -35.6954 -35.6953 -35.6952
   -35.6912 -35.6912 -35.6911 -35.6911 -35.6910 -35.6910 -35.6910 -35.6909
   -35.6908 -35.6908 -35.6908 -35.6908 -35.6908 -35.6908 -35.6907 -35.6907
   -35.6907 -35.6907 -35.6907 -35.6907 -35.6907 -35.6907 -35.6907 -35.6907
   -35.6907 -35.6907 -35.6906 -35.6906 -35.6905 -35.6905 -35.6905 -35.6905
   -35.6904 -35.6903 -35.6903 -35.6902 -35.1792 -35.1789 -35.1784 -35.1783
   -35.1782 -35.1781 -35.1779 -35.1778 -35.1777 -35.1776 -35.1775 -35.1774
   -35.1774 -35.1774 -35.1774 -35.1773 -35.1773 -35.1772 -35.1771 -35.1771
   -35.1771 -35.1771 -35.1771 -35.1770 -35.1770 -35.1770 -35.1768 -35.1768
   -35.1767 -35.1767 -35.1766 -35.1765 -35.1765 -35.1764 -35.1763 -35.1763
   -35.1762 -35.1761 -35.1761 -35.1760 -35.1758 -35.1757 -35.1757 -35.1756
   -35.1755 -35.1754 -35.1752 -35.1751 -35.1750 -35.1746 -35.1745 -35.1744
   -35.1743 -35.1733 -35.1721 -35.1716 -35.1714 -35.1712 -35.1712 -35.1710
   -35.1710 -35.1708 -35.1706 -35.1706 -35.1705 -35.1704 -35.1704 -35.1703
   -35.1703 -35.1702 -35.1702 -35.1701 -35.1700 -35.1698 -35.1697 -35.1696
   -35.1695 -35.1695 -35.1694 -35.1693 -35.1693 -35.1692 -35.1691 -35.1690
   -35.1689 -35.1689 -35.1688 -35.1687 -35.1685 -35.1685 -35.1685 -35.1684
   -35.1684 -35.1683 -35.1683 -35.1682 -35.1682 -35.1681 -35.1681 -35.1680
   -35.1679 -35.1678 -35.1677 -35.1677 -35.1673 -35.1672 -35.1669 -35.1663
   -14.2176 -14.2172 -14.2167 -14.2166 -14.2161 -14.2157 -14.2155 -14.2155
   -14.2152 -14.2151 -14.2150 -14.2146 -14.2146 -14.2145 -14.2139 -14.2138
   -14.2134 -14.2130 -14.2123 -14.2122 -14.2114 -14.2110 -14.2108 -14.2106
   -14.2104 -14.2102 -14.2102 -14.2101 -14.2099 -14.2098 -14.2097 -14.2097
   -14.2096 -14.2096 -14.2095 -14.2094 -14.2093 -14.2091 -14.2090 -14.2088
   -14.2087 -14.2087 -14.2086 -14.2084 -14.2084 -14.2083 -14.2082 -14.2082
   -14.2082 -14.2080 -14.2078 -14.2077 -14.2076 -14.2074 -14.2071 -14.2071
   -14.2065 -14.2063 -14.2062 -14.2052 -14.2051 -14.2051 -14.2047 -14.2046
   -14.2045 -14.2044 -14.2042 -14.2040 -14.2038 -14.2033 -14.2028 -14.2023
   -14.1901 -14.1887 -14.1882 -14.1879 -14.1876 -14.1874 -14.1873 -14.1872
   -14.1871 -14.1869 -14.1868 -14.1866 -14.1865 -14.1864 -14.1862 -14.1858
   -14.1852 -14.1851 -14.1847 -14.1847 -14.1846 -14.1843 -14.1841 -14.1841
   -14.1839 -14.1839 -14.1832 -14.1832 -14.1831 -14.1831 -14.1830 -14.1828
   -14.1828 -14.1825 -14.1822 -14.1809 -14.1747 -14.1745 -14.1741 -14.1740
   -14.1729 -14.1728 -14.1724 -14.1722 -14.1720 -14.1719 -14.1718 -14.1717
   -14.1716 -14.1716 -14.1714 -14.1714 -14.1711 -14.1711 -14.1707 -14.1707
   -14.1705 -14.1704 -14.1701 -14.1698 -14.1698 -14.1694 -14.1690 -14.1687
   -14.1687 -14.1685 -14.1685 -14.1674 -14.1657 -14.1656 -14.1651 -14.1650
   -14.1648 -14.1643 -14.1642 -14.1641 -14.1638 -14.1638 -14.1636 -14.1636
   -14.1632 -14.1632 -14.1626 -14.1625 -14.1622 -14.1620 -14.1617 -14.1614
   -14.1599 -14.1597 -14.1596 -14.1594 -14.1590 -14.1589 -14.1584 -14.1581
   -14.1580 -14.1579 -14.1578 -14.1577 -14.1576 -14.1575 -14.1574 -14.1571
   -14.1568 -14.1565 -14.1563 -14.1557  -3.6617  -3.4845  -3.3719  -3.2448
    -3.2446  -3.2168  -3.1067  -3.1064  -3.0398  -3.0396  -3.0200  -2.9654
    -2.9254  -2.9252  -2.8716  -2.8382  -2.7671  -2.7669  -2.7609  -2.7587
    -2.7585  -2.7100  -2.7098  -2.6840  -2.6838  -2.6594  -2.6321  -2.6197
    -2.6195  -2.5942  -2.5940  -2.5842  -2.5840  -2.5640  -2.5572  -2.5570
     3.0859   3.1504   3.3185   3.3739   3.3740   3.4241   3.4241   3.4352
     3.4352   3.5257   3.5335   3.5336   3.6342   3.6342   3.6425   3.6876
     3.6878   3.6987   3.6988   3.7586   3.7588   3.9302   3.9790   4.0780
     4.0782   4.1032   4.2052   4.2054   4.2139   4.2140   4.2206   4.2207
     4.2562   4.2563   4.3349   4.4234   4.4234   4.5866   4.6460   4.6462
     4.6475   4.8386   4.8387   5.0942   5.0943   5.2380   5.2870   5.2872
     5.3641   5.4018   5.4020   5.5335   5.5336   5.5822   5.5969   5.5970
     5.6543   5.6543   5.7032   5.7973   5.9164   5.9165   5.9783   5.9785
     6.0304   6.0306   6.0754   6.1038   6.1038   6.2347   6.3662   6.3662
     6.3730   6.3979   6.4586   6.4970   6.4970   6.5022   6.5024   6.5799
     6.5801   6.7022   6.7080   6.7375   6.7407   6.7774   6.8616   6.9224
     6.9225   7.0086   7.0088   7.0133   7.0135   7.0143   7.0145   7.0681
     7.0682   7.0998   7.1341   7.2223   7.2285   7.2285   7.2842   7.3842
     7.4061   7.4844   7.7520   7.7712   7.9505   8.3881   8.6285   8.6285
     8.6964   8.6964   8.7017   8.7018   8.8258   9.0762   9.0762   9.1388
     9.1659   9.2491   9.2491   9.2773   9.2773   9.3594   9.3974   9.3995
     9.3995   9.4331   9.5560   9.6366   9.6874   9.7382   9.7741   9.7742
     9.9299   9.9299   9.9645   9.9646  10.0370  10.0371  10.1722  10.1723
    10.3042  10.3043  10.3879  10.3879  10.4145  10.4760  10.4882  10.4882
    10.5565  10.5583  10.5929  10.6873  10.6875  10.8211  10.8212  10.8237
    11.0362  11.0653  11.0653  11.0903  11.1102  11.2944  11.3403  11.3404
    11.3570  11.3781  11.3781  11.4121  11.4122  11.4825  11.4827  11.5554
    11.5562  11.6051  11.6257  11.6258  11.6589  11.6590  11.7523  11.8210
    11.8768  11.9138  11.9140  11.9216  11.9216  11.9530  11.9964  12.0143
    12.0143  12.0512  12.0513  12.1217  12.1219  12.1311  12.1770  12.1771
    12.1827  12.2099  12.2228  12.2320  12.2322  12.3843  12.3844  12.4252
    12.4858  12.5890  12.6069  12.6558  12.6558  12.7595  12.7596  12.8492

     occupation numbers 
     1.0000   1.0000   1.0000   1.0000   1.0000   1.0000   1.0000   1.0000
     1.0000   1.0000   1.0000   1.0000   1.0000   1.0000   1.0000   1.0000
     1.0000   1.0000   1.0000   1.0000   1.0000   1.0000   1.0000   1.0000
     1.0000   1.0000   1.0000   1.0000   1.0000   1.0000   1.0000   1.0000
     1.0000   1.0000   1.0000   1.0000   1.0000   1.0000   1.0000   1.0000
     1.0000   1.0000   1.0000   1.0000   1.0000   1.0000   1.0000   1.0000
     1.0000   1.0000   1.0000   1.0000   1.0000   1.0000   1.0000   1.0000
     1.0000   1.0000   1.0000   1.0000   1.0000   1.0000   1.0000   1.0000
     1.0000   1.0000   1.0000   1.0000   1.0000   1.0000   1.0000   1.0000
     1.0000   1.0000   1.0000   1.0000   1.0000   1.0000   1.0000   1.0000
     1.0000   1.0000   1.0000   1.0000   1.0000   1.0000   1.0000   1.0000
     1.0000   1.0000   1.0000   1.0000   1.0000   1.0000   1.0000   1.0000
     1.0000   1.0000   1.0000   1.0000   1.0000   1.0000   1.0000   1.0000
     1.0000   1.0000   1.0000   1.0000   1.0000   1.0000   1.0000   1.0000
     1.0000   1.0000   1.0000   1.0000   1.0000   1.0000   1.0000   1.0000
     1.0000   1.0000   1.0000   1.0000   1.0000   1.0000   1.0000   1.0000
     1.0000   1.0000   1.0000   1.0000   1.0000   1.0000   1.0000   1.0000
     1.0000   1.0000   1.0000   1.0000   1.0000   1.0000   1.0000   1.0000
     1.0000   1.0000   1.0000   1.0000   1.0000   1.0000   1.0000   1.0000
     1.0000   1.0000   1.0000   1.0000   1.0000   1.0000   1.0000   1.0000
     1.0000   1.0000   1.0000   1.0000   1.0000   1.0000   1.0000   1.0000
     1.0000   1.0000   1.0000   1.0000   1.0000   1.0000   1.0000   1.0000
     1.0000   1.0000   1.0000   1.0000   1.0000   1.0000   1.0000   1.0000
     1.0000   1.0000   1.0000   1.0000   1.0000   1.0000   1.0000   1.0000
     1.0000   1.0000   1.0000   1.0000   1.0000   1.0000   1.0000   1.0000
     1.0000   1.0000   1.0000   1.0000   1.0000   1.0000   1.0000   1.0000
     1.0000   1.0000   1.0000   1.0000   1.0000   1.0000   1.0000   1.0000
     1.0000   1.0000   1.0000   1.0000   1.0000   1.0000   1.0000   1.0000
     1.0000   1.0000   1.0000   1.0000   1.0000   1.0000   1.0000   1.0000
     1.0000   1.0000   1.0000   1.0000   1.0000   1.0000   1.0000   1.0000
     1.0000   1.0000   1.0000   1.0000   1.0000   1.0000   1.0000   1.0000
     1.0000   1.0000   1.0000   1.0000   1.0000   1.0000   1.0000   1.0000
     1.0000   1.0000   1.0000   1.0000   1.0000   1.0000   1.0000   1.0000
     1.0000   1.0000   1.0000   1.0000   1.0000   1.0000   1.0000   1.0000
     1.0000   1.0000   1.0000   1.0000   1.0000   1.0000   1.0000   1.0000
     1.0000   1.0000   1.0000   1.0000   1.0000   1.0000   1.0000   1.0000
     1.0000   1.0000   1.0000   1.0000   1.0000   1.0000   1.0000   1.0000
     1.0000   1.0000   1.0000   1.0000   1.0000   1.0000   1.0000   1.0000
     1.0000   1.0000   1.0000   1.0000   1.0000   1.0000   1.0000   1.0000
     1.0000   1.0000   1.0000   1.0000   1.0000   1.0000   1.0000   1.0000
     1.0000   1.0000   1.0000   1.0000   1.0000   1.0000   1.0000   1.0000
     1.0000   1.0000   1.0000   1.0000   1.0000   1.0000   1.0000   1.0000
     1.0000   1.0000   1.0000   1.0000   1.0000   1.0000   1.0000   1.0000
     1.0000   1.0000   1.0000   1.0000   1.0000   1.0000   1.0000   1.0000
     1.0000   1.0000   1.0000   1.0000   1.0000   1.0000   1.0000   1.0000
     1.0000   1.0000   1.0000   1.0000   1.0000   1.0000   1.0000   1.0000
     1.0000   1.0000   1.0000   1.0000   1.0000   1.0000   1.0000   1.0000
     1.0000   1.0000   1.0000   1.0000   1.0000   1.0000   1.0000   1.0000
     1.0000   1.0000   1.0000   1.0000   1.0000   1.0000   1.0000   1.0000
     1.0000   1.0000   1.0000   1.0000   1.0000   1.0000   1.0000   1.0000
     1.0000   1.0000   1.0000   1.0000   1.0000   1.0000   1.0000   1.0000
     1.0000   1.0000   1.0000   1.0000   1.0000   1.0000   1.0000   1.0000
     1.0000   1.0000   1.0000   1.0000   1.0000   1.0000   1.0000   1.0000
     1.0000   1.0000   1.0000   1.0000   1.0000   1.0000   1.0000   1.0000
     1.0000   1.0000   1.0000   1.0000   1.0000   1.0000   1.0000   1.0000
     1.0000   1.0000   1.0000   1.0000   1.0000   1.0000   1.0000   1.0000
     1.0000   1.0000   1.0000   1.0000   1.0000   1.0000   1.0000   1.0000
     1.0000   1.0000   1.0000   1.0000   1.0000   1.0000   1.0000   1.0000
     1.0000   1.0000   1.0000   1.0000   1.0000   1.0000   1.0000   1.0000
     1.0000   1.0000   1.0000   1.0000   1.0000   1.0000   1.0000   1.0000
     1.0000   1.0000   1.0000   1.0000   1.0000   1.0000   1.0000   1.0000
     1.0000   1.0000   1.0000   1.0000   1.0000   1.0000   1.0000   1.0000
     1.0000   1.0000   1.0000   1.0000   1.0000   1.0000   1.0000   1.0000
     1.0000   1.0000   1.0000   1.0000   1.0000   1.0000   1.0000   1.0000
     1.0000   1.0000   1.0000   1.0000   1.0000   1.0000   1.0000   1.0000
     1.0000   1.0000   1.0000   1.0000   1.0000   1.0000   1.0000   1.0000
     1.0000   1.0000   1.0000   1.0000   1.0000   1.0000   1.0000   1.0000
     1.0000   1.0000   1.0203   1.0268   0.6664  -0.0001  -0.0000  -0.0000
    -0.0000  -0.0000  -0.0000  -0.0000  -0.0000  -0.0000  -0.0000  -0.0000
    -0.0000  -0.0000  -0.0000  -0.0000  -0.0000  -0.0000  -0.0000  -0.0000
    -0.0000  -0.0000  -0.0000  -0.0000  -0.0000  -0.0000  -0.0000  -0.0000
    -0.0000  -0.0000  -0.0000  -0.0000  -0.0000  -0.0000  -0.0000  -0.0000
    -0.0000  -0.0000  -0.0000  -0.0000  -0.0000  -0.0000  -0.0000  -0.0000
    -0.0000  -0.0000  -0.0000  -0.0000  -0.0000  -0.0000  -0.0000  -0.0000
    -0.0000  -0.0000  -0.0000  -0.0000  -0.0000  -0.0000  -0.0000  -0.0000
    -0.0000  -0.0000  -0.0000  -0.0000  -0.0000  -0.0000  -0.0000  -0.0000
    -0.0000  -0.0000  -0.0000  -0.0000  -0.0000  -0.0000  -0.0000  -0.0000
    -0.0000  -0.0000  -0.0000  -0.0000  -0.0000  -0.0000  -0.0000  -0.0000
    -0.0000  -0.0000  -0.0000  -0.0000  -0.0000  -0.0000  -0.0000  -0.0000
    -0.0000  -0.0000  -0.0000  -0.0000  -0.0000  -0.0000  -0.0000  -0.0000
    -0.0000  -0.0000  -0.0000  -0.0000  -0.0000  -0.0000  -0.0000  -0.0000

          k =-0.2500-0.1443 0.2373 (554660 PWs)   bands (ev):

   -68.2851 -68.2849 -68.2848 -68.2848 -68.2846 -68.2846 -68.2846 -68.2846
   -68.2846 -68.2846 -68.2846 -68.2846 -68.2846 -68.2845 -68.2844 -68.2844
   -68.2842 -68.2841 -67.7467 -67.7456 -67.7455 -67.7452 -67.7448 -67.7446
   -67.7446 -67.7445 -67.7444 -67.7444 -67.7444 -67.7443 -67.7442 -67.7442
   -67.7441 -67.7441 -67.7440 -67.7440 -67.7439 -67.7439 -67.7438 -67.7438
   -67.7438 -67.7437 -67.7436 -67.7436 -67.7435 -67.7435 -67.7434 -67.7433
   -67.7433 -67.7431 -67.7428 -67.7424 -67.7423 -67.7412 -35.6961 -35.6960
   -35.6959 -35.6959 -35.6957 -35.6957 -35.6957 -35.6957 -35.6956 -35.6956
   -35.6956 -35.6956 -35.6956 -35.6956 -35.6954 -35.6954 -35.6953 -35.6952
   -35.6912 -35.6912 -35.6911 -35.6911 -35.6910 -35.6910 -35.6910 -35.6909
   -35.6908 -35.6908 -35.6908 -35.6908 -35.6908 -35.6908 -35.6907 -35.6907
   -35.6907 -35.6907 -35.6907 -35.6907 -35.6907 -35.6907 -35.6907 -35.6907
   -35.6907 -35.6907 -35.6906 -35.6906 -35.6905 -35.6905 -35.6905 -35.6905
   -35.6904 -35.6903 -35.6903 -35.6902 -35.1792 -35.1789 -35.1784 -35.1783
   -35.1782 -35.1781 -35.1779 -35.1778 -35.1777 -35.1776 -35.1775 -35.1774
   -35.1774 -35.1774 -35.1774 -35.1773 -35.1773 -35.1772 -35.1771 -35.1771
   -35.1771 -35.1771 -35.1771 -35.1770 -35.1770 -35.1770 -35.1768 -35.1768
   -35.1767 -35.1767 -35.1766 -35.1765 -35.1765 -35.1764 -35.1763 -35.1763
   -35.1762 -35.1761 -35.1761 -35.1760 -35.1758 -35.1757 -35.1757 -35.1756
   -35.1755 -35.1754 -35.1752 -35.1751 -35.1750 -35.1746 -35.1745 -35.1744
   -35.1743 -35.1733 -35.1721 -35.1716 -35.1714 -35.1712 -35.1712 -35.1710
   -35.1710 -35.1708 -35.1706 -35.1706 -35.1705 -35.1704 -35.1704 -35.1703
   -35.1703 -35.1702 -35.1702 -35.1701 -35.1700 -35.1698 -35.1697 -35.1696
   -35.1695 -35.1695 -35.1694 -35.1693 -35.1693 -35.1692 -35.1691 -35.1690
   -35.1689 -35.1689 -35.1688 -35.1687 -35.1685 -35.1685 -35.1685 -35.1684
   -35.1684 -35.1683 -35.1683 -35.1682 -35.1682 -35.1681 -35.1681 -35.1680
   -35.1679 -35.1678 -35.1677 -35.1677 -35.1673 -35.1672 -35.1669 -35.1663
   -14.2177 -14.2171 -14.2166 -14.2162 -14.2160 -14.2160 -14.2157 -14.2157
   -14.2153 -14.2150 -14.2149 -14.2147 -14.2147 -14.2144 -14.2138 -14.2137
   -14.2132 -14.2132 -14.2127 -14.2119 -14.2113 -14.2110 -14.2106 -14.2104
   -14.2103 -14.2103 -14.2102 -14.2101 -14.2100 -14.2099 -14.2099 -14.2099
   -14.2097 -14.2096 -14.2095 -14.2095 -14.2091 -14.2090 -14.2088 -14.2088
   -14.2087 -14.2087 -14.2087 -14.2086 -14.2085 -14.2085 -14.2083 -14.2081
   -14.2081 -14.2079 -14.2078 -14.2077 -14.2075 -14.2074 -14.2072 -14.2070
   -14.2063 -14.2059 -14.2058 -14.2054 -14.2054 -14.2052 -14.2050 -14.2049
   -14.2044 -14.2044 -14.2039 -14.2038 -14.2037 -14.2034 -14.2028 -14.2023
   -14.1901 -14.1887 -14.1882 -14.1879 -14.1876 -14.1874 -14.1873 -14.1872
   -14.1871 -14.1869 -14.1868 -14.1866 -14.1865 -14.1865 -14.1862 -14.1858
   -14.1852 -14.1851 -14.1847 -14.1846 -14.1846 -14.1843 -14.1841 -14.1841
   -14.1839 -14.1838 -14.1832 -14.1832 -14.1831 -14.1830 -14.1829 -14.1829
   -14.1828 -14.1825 -14.1822 -14.1809 -14.1747 -14.1745 -14.1741 -14.1740
   -14.1729 -14.1728 -14.1723 -14.1722 -14.1721 -14.1720 -14.1719 -14.1717
   -14.1716 -14.1715 -14.1714 -14.1713 -14.1710 -14.1710 -14.1706 -14.1706
   -14.1705 -14.1705 -14.1703 -14.1700 -14.1699 -14.1693 -14.1691 -14.1691
   -14.1685 -14.1681 -14.1681 -14.1680 -14.1656 -14.1655 -14.1651 -14.1651
   -14.1650 -14.1642 -14.1641 -14.1640 -14.1639 -14.1638 -14.1635 -14.1634
   -14.1634 -14.1633 -14.1627 -14.1625 -14.1621 -14.1620 -14.1617 -14.1614
   -14.1598 -14.1598 -14.1596 -14.1593 -14.1590 -14.1590 -14.1582 -14.1582
   -14.1581 -14.1580 -14.1579 -14.1579 -14.1574 -14.1573 -14.1572 -14.1570
   -14.1569 -14.1566 -14.1564 -14.1556  -3.6617  -3.4845  -3.3709  -3.2460
    -3.2457  -3.2189  -3.1041  -3.1039  -3.0376  -3.0374  -3.0201  -2.9680
    -2.9300  -2.9298  -2.8661  -2.8353  -2.7704  -2.7702  -2.7609  -2.7592
    -2.7590  -2.7089  -2.7087  -2.6783  -2.6781  -2.6660  -2.6339  -2.6209
    -2.6207  -2.5921  -2.5920  -2.5836  -2.5834  -2.5606  -2.5603  -2.5600
     3.1492   3.1557   3.2538   3.2686   3.2686   3.4533   3.4534   3.5204
     3.5204   3.5437   3.5439   3.5744   3.5913   3.6305   3.6306   3.6505
     3.6508   3.7848   3.7848   3.7885   3.8083   3.8084   3.9837   4.0375
     4.0376   4.0933   4.0935   4.1151   4.1154   4.1356   4.2628   4.2629
     4.3852   4.3852   4.4317   4.4318   4.5318   4.5380   4.5550   4.5550
     4.6991   4.8426   4.8427   5.0937   5.0937   5.2285   5.2778   5.2781
     5.3472   5.4671   5.4671   5.5056   5.5057   5.5704   5.6157   5.6279
     5.6280   5.6544   5.6545   5.8030   5.9175   5.9176   6.0279   6.0281
     6.0321   6.0324   6.0424   6.0425   6.0614   6.2156   6.2884   6.2962
     6.2963   6.4323   6.4987   6.4989   6.5072   6.5837   6.5838   6.6315
     6.6315   6.6832   6.7247   6.7554   6.7754   6.8075   6.8902   6.9384
     6.9385   7.0007   7.0008   7.0121   7.0122   7.0232   7.0248   7.0249
     7.0291   7.0291   7.0538   7.1602   7.2056   7.2136   7.2137   7.3855
     7.5177   7.5388   7.7091   7.8286   8.2956   8.3482   8.3483   8.5295
     8.5904   8.6255   8.6255   8.8850   8.8850   8.9413   8.9413   9.0232
     9.1016   9.1887   9.3145   9.3147   9.3386   9.4414   9.5041   9.5042
     9.5280   9.6964   9.6964   9.7368   9.7590   9.7591   9.7720   9.8477
     9.8478   9.8752   9.8753   9.8906   9.9549   9.9550   9.9659  10.2657
    10.2658  10.3613  10.3613  10.3682  10.3682  10.4601  10.4866  10.4868
    10.6303  10.6303  10.6684  10.6737  10.7929  10.9048  10.9208  10.9770
    10.9771  10.9788  10.9789  11.0168  11.0168  11.0816  11.0975  11.2379
    11.2529  11.2530  11.3364  11.3364  11.3420  11.3511  11.3761  11.4733
    11.4734  11.6620  11.6620  11.7037  11.7162  11.7162  11.7619  11.7621
    11.9343  11.9687  11.9759  12.0154  12.0192  12.0192  12.0347  12.0348
    12.0410  12.0483  12.1366  12.1367  12.1388  12.1390  12.2109  12.2109
    12.2460  12.2593  12.3241  12.4806  12.5506  12.5508  12.5778  12.5780
    12.5908  12.5910  12.6879  12.7144  12.7623  12.7760  12.8493  12.8498

     occupation numbers 
     1.0000   1.0000   1.0000   1.0000   1.0000   1.0000   1.0000   1.0000
     1.0000   1.0000   1.0000   1.0000   1.0000   1.0000   1.0000   1.0000
     1.0000   1.0000   1.0000   1.0000   1.0000   1.0000   1.0000   1.0000
     1.0000   1.0000   1.0000   1.0000   1.0000   1.0000   1.0000   1.0000
     1.0000   1.0000   1.0000   1.0000   1.0000   1.0000   1.0000   1.0000
     1.0000   1.0000   1.0000   1.0000   1.0000   1.0000   1.0000   1.0000
     1.0000   1.0000   1.0000   1.0000   1.0000   1.0000   1.0000   1.0000
     1.0000   1.0000   1.0000   1.0000   1.0000   1.0000   1.0000   1.0000
     1.0000   1.0000   1.0000   1.0000   1.0000   1.0000   1.0000   1.0000
     1.0000   1.0000   1.0000   1.0000   1.0000   1.0000   1.0000   1.0000
     1.0000   1.0000   1.0000   1.0000   1.0000   1.0000   1.0000   1.0000
     1.0000   1.0000   1.0000   1.0000   1.0000   1.0000   1.0000   1.0000
     1.0000   1.0000   1.0000   1.0000   1.0000   1.0000   1.0000   1.0000
     1.0000   1.0000   1.0000   1.0000   1.0000   1.0000   1.0000   1.0000
     1.0000   1.0000   1.0000   1.0000   1.0000   1.0000   1.0000   1.0000
     1.0000   1.0000   1.0000   1.0000   1.0000   1.0000   1.0000   1.0000
     1.0000   1.0000   1.0000   1.0000   1.0000   1.0000   1.0000   1.0000
     1.0000   1.0000   1.0000   1.0000   1.0000   1.0000   1.0000   1.0000
     1.0000   1.0000   1.0000   1.0000   1.0000   1.0000   1.0000   1.0000
     1.0000   1.0000   1.0000   1.0000   1.0000   1.0000   1.0000   1.0000
     1.0000   1.0000   1.0000   1.0000   1.0000   1.0000   1.0000   1.0000
     1.0000   1.0000   1.0000   1.0000   1.0000   1.0000   1.0000   1.0000
     1.0000   1.0000   1.0000   1.0000   1.0000   1.0000   1.0000   1.0000
     1.0000   1.0000   1.0000   1.0000   1.0000   1.0000   1.0000   1.0000
     1.0000   1.0000   1.0000   1.0000   1.0000   1.0000   1.0000   1.0000
     1.0000   1.0000   1.0000   1.0000   1.0000   1.0000   1.0000   1.0000
     1.0000   1.0000   1.0000   1.0000   1.0000   1.0000   1.0000   1.0000
     1.0000   1.0000   1.0000   1.0000   1.0000   1.0000   1.0000   1.0000
     1.0000   1.0000   1.0000   1.0000   1.0000   1.0000   1.0000   1.0000
     1.0000   1.0000   1.0000   1.0000   1.0000   1.0000   1.0000   1.0000
     1.0000   1.0000   1.0000   1.0000   1.0000   1.0000   1.0000   1.0000
     1.0000   1.0000   1.0000   1.0000   1.0000   1.0000   1.0000   1.0000
     1.0000   1.0000   1.0000   1.0000   1.0000   1.0000   1.0000   1.0000
     1.0000   1.0000   1.0000   1.0000   1.0000   1.0000   1.0000   1.0000
     1.0000   1.0000   1.0000   1.0000   1.0000   1.0000   1.0000   1.0000
     1.0000   1.0000   1.0000   1.0000   1.0000   1.0000   1.0000   1.0000
     1.0000   1.0000   1.0000   1.0000   1.0000   1.0000   1.0000   1.0000
     1.0000   1.0000   1.0000   1.0000   1.0000   1.0000   1.0000   1.0000
     1.0000   1.0000   1.0000   1.0000   1.0000   1.0000   1.0000   1.0000
     1.0000   1.0000   1.0000   1.0000   1.0000   1.0000   1.0000   1.0000
     1.0000   1.0000   1.0000   1.0000   1.0000   1.0000   1.0000   1.0000
     1.0000   1.0000   1.0000   1.0000   1.0000   1.0000   1.0000   1.0000
     1.0000   1.0000   1.0000   1.0000   1.0000   1.0000   1.0000   1.0000
     1.0000   1.0000   1.0000   1.0000   1.0000   1.0000   1.0000   1.0000
     1.0000   1.0000   1.0000   1.0000   1.0000   1.0000   1.0000   1.0000
     1.0000   1.0000   1.0000   1.0000   1.0000   1.0000   1.0000   1.0000
     1.0000   1.0000   1.0000   1.0000   1.0000   1.0000   1.0000   1.0000
     1.0000   1.0000   1.0000   1.0000   1.0000   1.0000   1.0000   1.0000
     1.0000   1.0000   1.0000   1.0000   1.0000   1.0000   1.0000   1.0000
     1.0000   1.0000   1.0000   1.0000   1.0000   1.0000   1.0000   1.0000
     1.0000   1.0000   1.0000   1.0000   1.0000   1.0000   1.0000   1.0000
     1.0000   1.0000   1.0000   1.0000   1.0000   1.0000   1.0000   1.0000
     1.0000   1.0000   1.0000   1.0000   1.0000   1.0000   1.0000   1.0000
     1.0000   1.0000   1.0000   1.0000   1.0000   1.0000   1.0000   1.0000
     1.0000   1.0000   1.0000   1.0000   1.0000   1.0000   1.0000   1.0000
     1.0000   1.0000   1.0000   1.0000   1.0000   1.0000   1.0000   1.0000
     1.0000   1.0000   1.0000   1.0000   1.0000   1.0000   1.0000   1.0000
     1.0000   1.0000   1.0000   1.0000   1.0000   1.0000   1.0000   1.0000
     1.0000   1.0000   1.0000   1.0000   1.0000   1.0000   1.0000   1.0000
     1.0000   1.0000   1.0000   1.0000   1.0000   1.0000   1.0000   1.0000
     1.0000   1.0000   1.0000   1.0000   1.0000   1.0000   1.0000   1.0000
     1.0000   1.0000   1.0000   1.0000   1.0000   1.0000   1.0000   1.0000
     1.0000   1.0000   1.0000   1.0000   1.0000   1.0000   1.0000   1.0000
     1.0000   1.0000   1.0000   1.0000   1.0000   1.0000   1.0000   1.0000
     1.0000   1.0000   1.0000   1.0000   1.0000   1.0000   1.0000   1.0000
     1.0000   1.0000   1.0000   1.0000   1.0000   1.0000   1.0000   1.0000
     1.0000   1.0000   1.0000   1.0000   1.0000   1.0000   1.0000   1.0000
     1.0000   1.0000   1.0086   1.0325  -0.0023  -0.0004  -0.0004  -0.0000
    -0.0000  -0.0000  -0.0000  -0.0000  -0.0000  -0.0000  -0.0000  -0.0000
    -0.0000  -0.0000  -0.0000  -0.0000  -0.0000  -0.0000  -0.0000  -0.0000
    -0.0000  -0.0000  -0.0000  -0.0000  -0.0000  -0.0000  -0.0000  -0.0000
    -0.0000  -0.0000  -0.0000  -0.0000  -0.0000  -0.0000  -0.0000  -0.0000
    -0.0000  -0.0000  -0.0000  -0.0000  -0.0000  -0.0000  -0.0000  -0.0000
    -0.0000  -0.0000  -0.0000  -0.0000  -0.0000  -0.0000  -0.0000  -0.0000
    -0.0000  -0.0000  -0.0000  -0.0000  -0.0000  -0.0000  -0.0000  -0.0000
    -0.0000  -0.0000  -0.0000  -0.0000  -0.0000  -0.0000  -0.0000  -0.0000
    -0.0000  -0.0000  -0.0000  -0.0000  -0.0000  -0.0000  -0.0000  -0.0000
    -0.0000  -0.0000  -0.0000  -0.0000  -0.0000  -0.0000  -0.0000  -0.0000
    -0.0000  -0.0000  -0.0000  -0.0000  -0.0000  -0.0000  -0.0000  -0.0000
    -0.0000  -0.0000  -0.0000  -0.0000  -0.0000  -0.0000  -0.0000  -0.0000
    -0.0000  -0.0000  -0.0000  -0.0000  -0.0000  -0.0000  -0.0000  -0.0000

          k = 0.2500-0.1443 0.2373 (554660 PWs)   bands (ev):

   -68.2851 -68.2849 -68.2848 -68.2848 -68.2846 -68.2846 -68.2846 -68.2846
   -68.2846 -68.2846 -68.2846 -68.2846 -68.2846 -68.2845 -68.2844 -68.2844
   -68.2842 -68.2841 -67.7467 -67.7456 -67.7455 -67.7452 -67.7448 -67.7446
   -67.7446 -67.7445 -67.7444 -67.7444 -67.7443 -67.7443 -67.7442 -67.7441
   -67.7441 -67.7441 -67.7441 -67.7440 -67.7439 -67.7439 -67.7438 -67.7438
   -67.7438 -67.7437 -67.7436 -67.7436 -67.7435 -67.7435 -67.7434 -67.7433
   -67.7433 -67.7431 -67.7428 -67.7424 -67.7423 -67.7412 -35.6961 -35.6960
   -35.6959 -35.6959 -35.6957 -35.6957 -35.6957 -35.6957 -35.6956 -35.6956
   -35.6956 -35.6956 -35.6956 -35.6956 -35.6954 -35.6954 -35.6953 -35.6952
   -35.6912 -35.6912 -35.6911 -35.6911 -35.6910 -35.6910 -35.6910 -35.6909
   -35.6908 -35.6908 -35.6908 -35.6908 -35.6908 -35.6908 -35.6907 -35.6907
   -35.6907 -35.6907 -35.6907 -35.6907 -35.6907 -35.6907 -35.6907 -35.6907
   -35.6907 -35.6907 -35.6906 -35.6906 -35.6905 -35.6905 -35.6905 -35.6905
   -35.6904 -35.6903 -35.6903 -35.6902 -35.1792 -35.1789 -35.1784 -35.1783
   -35.1782 -35.1781 -35.1779 -35.1778 -35.1777 -35.1776 -35.1775 -35.1775
   -35.1774 -35.1774 -35.1774 -35.1773 -35.1772 -35.1772 -35.1771 -35.1771
   -35.1771 -35.1771 -35.1771 -35.1770 -35.1770 -35.1769 -35.1769 -35.1768
   -35.1768 -35.1767 -35.1766 -35.1765 -35.1764 -35.1764 -35.1763 -35.1762
   -35.1762 -35.1761 -35.1760 -35.1759 -35.1758 -35.1758 -35.1757 -35.1757
   -35.1755 -35.1753 -35.1752 -35.1751 -35.1749 -35.1747 -35.1746 -35.1744
   -35.1742 -35.1733 -35.1720 -35.1716 -35.1715 -35.1712 -35.1712 -35.1710
   -35.1709 -35.1707 -35.1706 -35.1705 -35.1705 -35.1704 -35.1704 -35.1704
   -35.1703 -35.1702 -35.1701 -35.1701 -35.1700 -35.1698 -35.1698 -35.1696
   -35.1696 -35.1695 -35.1694 -35.1694 -35.1692 -35.1691 -35.1691 -35.1690
   -35.1689 -35.1689 -35.1687 -35.1687 -35.1686 -35.1686 -35.1685 -35.1684
   -35.1684 -35.1683 -35.1682 -35.1682 -35.1682 -35.1682 -35.1681 -35.1680
   -35.1680 -35.1678 -35.1677 -35.1676 -35.1673 -35.1672 -35.1669 -35.1663
   -14.2178 -14.2170 -14.2167 -14.2162 -14.2160 -14.2160 -14.2157 -14.2155
   -14.2154 -14.2150 -14.2149 -14.2147 -14.2147 -14.2143 -14.2138 -14.2137
   -14.2135 -14.2130 -14.2128 -14.2117 -14.2115 -14.2110 -14.2105 -14.2104
   -14.2103 -14.2103 -14.2102 -14.2101 -14.2101 -14.2100 -14.2099 -14.2098
   -14.2097 -14.2095 -14.2094 -14.2093 -14.2091 -14.2090 -14.2089 -14.2089
   -14.2088 -14.2087 -14.2087 -14.2086 -14.2085 -14.2085 -14.2083 -14.2082
   -14.2081 -14.2080 -14.2078 -14.2076 -14.2075 -14.2075 -14.2072 -14.2068
   -14.2064 -14.2059 -14.2058 -14.2055 -14.2053 -14.2052 -14.2050 -14.2048
   -14.2045 -14.2043 -14.2040 -14.2039 -14.2036 -14.2034 -14.2027 -14.2024
   -14.1901 -14.1887 -14.1884 -14.1878 -14.1877 -14.1875 -14.1873 -14.1872
   -14.1870 -14.1869 -14.1868 -14.1867 -14.1865 -14.1863 -14.1862 -14.1858
   -14.1852 -14.1851 -14.1847 -14.1846 -14.1845 -14.1844 -14.1842 -14.1841
   -14.1838 -14.1838 -14.1834 -14.1832 -14.1832 -14.1830 -14.1829 -14.1829
   -14.1827 -14.1824 -14.1823 -14.1809 -14.1747 -14.1745 -14.1741 -14.1740
   -14.1731 -14.1727 -14.1723 -14.1722 -14.1721 -14.1720 -14.1718 -14.1717
   -14.1715 -14.1714 -14.1713 -14.1712 -14.1710 -14.1708 -14.1707 -14.1705
   -14.1705 -14.1705 -14.1704 -14.1702 -14.1699 -14.1695 -14.1692 -14.1691
   -14.1686 -14.1681 -14.1681 -14.1677 -14.1656 -14.1655 -14.1651 -14.1651
   -14.1650 -14.1642 -14.1641 -14.1640 -14.1639 -14.1637 -14.1635 -14.1634
   -14.1633 -14.1629 -14.1628 -14.1625 -14.1623 -14.1619 -14.1619 -14.1614
   -14.1600 -14.1598 -14.1595 -14.1592 -14.1591 -14.1589 -14.1583 -14.1582
   -14.1581 -14.1581 -14.1579 -14.1576 -14.1575 -14.1573 -14.1572 -14.1571
   -14.1570 -14.1566 -14.1561 -14.1558  -3.6617  -3.4845  -3.3709  -3.2460
    -3.2457  -3.2189  -3.1041  -3.1039  -3.0376  -3.0374  -3.0201  -2.9680
    -2.9300  -2.9298  -2.8661  -2.8353  -2.7704  -2.7703  -2.7608  -2.7592
    -2.7590  -2.7089  -2.7087  -2.6783  -2.6781  -2.6660  -2.6339  -2.6209
    -2.6207  -2.5922  -2.5920  -2.5836  -2.5834  -2.5607  -2.5603  -2.5600
     3.1492   3.1557   3.2538   3.2686   3.2686   3.4533   3.4534   3.5204
     3.5204   3.5438   3.5439   3.5744   3.5913   3.6305   3.6306   3.6505
     3.6508   3.7847   3.7848   3.7886   3.8083   3.8084   3.9837   4.0375
     4.0376   4.0933   4.0935   4.1151   4.1154   4.1356   4.2628   4.2629
     4.3852   4.3852   4.4317   4.4318   4.5317   4.5381   4.5550   4.5550
     4.6991   4.8426   4.8427   5.0937   5.0937   5.2285   5.2778   5.2781
     5.3472   5.4671   5.4672   5.5056   5.5057   5.5704   5.6157   5.6279
     5.6280   5.6544   5.6545   5.8030   5.9175   5.9176   6.0279   6.0281
     6.0321   6.0324   6.0424   6.0425   6.0614   6.2156   6.2884   6.2962
     6.2963   6.4323   6.4987   6.4989   6.5072   6.5837   6.5838   6.6315
     6.6315   6.6832   6.7247   6.7554   6.7754   6.8075   6.8902   6.9384
     6.9385   7.0006   7.0008   7.0121   7.0122   7.0232   7.0247   7.0248
     7.0291   7.0292   7.0538   7.1602   7.2056   7.2136   7.2137   7.3855
     7.5177   7.5388   7.7091   7.8286   8.2956   8.3482   8.3483   8.5295
     8.5904   8.6255   8.6255   8.8850   8.8850   8.9413   8.9413   9.0232
     9.1016   9.1887   9.3145   9.3147   9.3386   9.4414   9.5041   9.5042
     9.5280   9.6964   9.6964   9.7368   9.7590   9.7591   9.7720   9.8477
     9.8478   9.8752   9.8753   9.8906   9.9549   9.9550   9.9659  10.2657
    10.2658  10.3613  10.3613  10.3682  10.3682  10.4601  10.4866  10.4868
    10.6303  10.6303  10.6684  10.6737  10.7929  10.9048  10.9208  10.9770
    10.9771  10.9788  10.9789  11.0168  11.0168  11.0816  11.0975  11.2379
    11.2529  11.2530  11.3364  11.3364  11.3420  11.3511  11.3761  11.4733
    11.4735  11.6620  11.6620  11.7037  11.7162  11.7162  11.7619  11.7621
    11.9343  11.9688  11.9759  12.0154  12.0192  12.0192  12.0347  12.0348
    12.0410  12.0483  12.1366  12.1367  12.1388  12.1390  12.2109  12.2109
    12.2460  12.2593  12.3241  12.4806  12.5506  12.5508  12.5779  12.5780
    12.5909  12.5911  12.6879  12.7144  12.7624  12.7760  12.8496  12.8845

     occupation numbers 
     1.0000   1.0000   1.0000   1.0000   1.0000   1.0000   1.0000   1.0000
     1.0000   1.0000   1.0000   1.0000   1.0000   1.0000   1.0000   1.0000
     1.0000   1.0000   1.0000   1.0000   1.0000   1.0000   1.0000   1.0000
     1.0000   1.0000   1.0000   1.0000   1.0000   1.0000   1.0000   1.0000
     1.0000   1.0000   1.0000   1.0000   1.0000   1.0000   1.0000   1.0000
     1.0000   1.0000   1.0000   1.0000   1.0000   1.0000   1.0000   1.0000
     1.0000   1.0000   1.0000   1.0000   1.0000   1.0000   1.0000   1.0000
     1.0000   1.0000   1.0000   1.0000   1.0000   1.0000   1.0000   1.0000
     1.0000   1.0000   1.0000   1.0000   1.0000   1.0000   1.0000   1.0000
     1.0000   1.0000   1.0000   1.0000   1.0000   1.0000   1.0000   1.0000
     1.0000   1.0000   1.0000   1.0000   1.0000   1.0000   1.0000   1.0000
     1.0000   1.0000   1.0000   1.0000   1.0000   1.0000   1.0000   1.0000
     1.0000   1.0000   1.0000   1.0000   1.0000   1.0000   1.0000   1.0000
     1.0000   1.0000   1.0000   1.0000   1.0000   1.0000   1.0000   1.0000
     1.0000   1.0000   1.0000   1.0000   1.0000   1.0000   1.0000   1.0000
     1.0000   1.0000   1.0000   1.0000   1.0000   1.0000   1.0000   1.0000
     1.0000   1.0000   1.0000   1.0000   1.0000   1.0000   1.0000   1.0000
     1.0000   1.0000   1.0000   1.0000   1.0000   1.0000   1.0000   1.0000
     1.0000   1.0000   1.0000   1.0000   1.0000   1.0000   1.0000   1.0000
     1.0000   1.0000   1.0000   1.0000   1.0000   1.0000   1.0000   1.0000
     1.0000   1.0000   1.0000   1.0000   1.0000   1.0000   1.0000   1.0000
     1.0000   1.0000   1.0000   1.0000   1.0000   1.0000   1.0000   1.0000
     1.0000   1.0000   1.0000   1.0000   1.0000   1.0000   1.0000   1.0000
     1.0000   1.0000   1.0000   1.0000   1.0000   1.0000   1.0000   1.0000
     1.0000   1.0000   1.0000   1.0000   1.0000   1.0000   1.0000   1.0000
     1.0000   1.0000   1.0000   1.0000   1.0000   1.0000   1.0000   1.0000
     1.0000   1.0000   1.0000   1.0000   1.0000   1.0000   1.0000   1.0000
     1.0000   1.0000   1.0000   1.0000   1.0000   1.0000   1.0000   1.0000
     1.0000   1.0000   1.0000   1.0000   1.0000   1.0000   1.0000   1.0000
     1.0000   1.0000   1.0000   1.0000   1.0000   1.0000   1.0000   1.0000
     1.0000   1.0000   1.0000   1.0000   1.0000   1.0000   1.0000   1.0000
     1.0000   1.0000   1.0000   1.0000   1.0000   1.0000   1.0000   1.0000
     1.0000   1.0000   1.0000   1.0000   1.0000   1.0000   1.0000   1.0000
     1.0000   1.0000   1.0000   1.0000   1.0000   1.0000   1.0000   1.0000
     1.0000   1.0000   1.0000   1.0000   1.0000   1.0000   1.0000   1.0000
     1.0000   1.0000   1.0000   1.0000   1.0000   1.0000   1.0000   1.0000
     1.0000   1.0000   1.0000   1.0000   1.0000   1.0000   1.0000   1.0000
     1.0000   1.0000   1.0000   1.0000   1.0000   1.0000   1.0000   1.0000
     1.0000   1.0000   1.0000   1.0000   1.0000   1.0000   1.0000   1.0000
     1.0000   1.0000   1.0000   1.0000   1.0000   1.0000   1.0000   1.0000
     1.0000   1.0000   1.0000   1.0000   1.0000   1.0000   1.0000   1.0000
     1.0000   1.0000   1.0000   1.0000   1.0000   1.0000   1.0000   1.0000
     1.0000   1.0000   1.0000   1.0000   1.0000   1.0000   1.0000   1.0000
     1.0000   1.0000   1.0000   1.0000   1.0000   1.0000   1.0000   1.0000
     1.0000   1.0000   1.0000   1.0000   1.0000   1.0000   1.0000   1.0000
     1.0000   1.0000   1.0000   1.0000   1.0000   1.0000   1.0000   1.0000
     1.0000   1.0000   1.0000   1.0000   1.0000   1.0000   1.0000   1.0000
     1.0000   1.0000   1.0000   1.0000   1.0000   1.0000   1.0000   1.0000
     1.0000   1.0000   1.0000   1.0000   1.0000   1.0000   1.0000   1.0000
     1.0000   1.0000   1.0000   1.0000   1.0000   1.0000   1.0000   1.0000
     1.0000   1.0000   1.0000   1.0000   1.0000   1.0000   1.0000   1.0000
     1.0000   1.0000   1.0000   1.0000   1.0000   1.0000   1.0000   1.0000
     1.0000   1.0000   1.0000   1.0000   1.0000   1.0000   1.0000   1.0000
     1.0000   1.0000   1.0000   1.0000   1.0000   1.0000   1.0000   1.0000
     1.0000   1.0000   1.0000   1.0000   1.0000   1.0000   1.0000   1.0000
     1.0000   1.0000   1.0000   1.0000   1.0000   1.0000   1.0000   1.0000
     1.0000   1.0000   1.0000   1.0000   1.0000   1.0000   1.0000   1.0000
     1.0000   1.0000   1.0000   1.0000   1.0000   1.0000   1.0000   1.0000
     1.0000   1.0000   1.0000   1.0000   1.0000   1.0000   1.0000   1.0000
     1.0000   1.0000   1.0000   1.0000   1.0000   1.0000   1.0000   1.0000
     1.0000   1.0000   1.0000   1.0000   1.0000   1.0000   1.0000   1.0000
     1.0000   1.0000   1.0000   1.0000   1.0000   1.0000   1.0000   1.0000
     1.0000   1.0000   1.0000   1.0000   1.0000   1.0000   1.0000   1.0000
     1.0000   1.0000   1.0000   1.0000   1.0000   1.0000   1.0000   1.0000
     1.0000   1.0000   1.0000   1.0000   1.0000   1.0000   1.0000   1.0000
     1.0000   1.0000   1.0000   1.0000   1.0000   1.0000   1.0000   1.0000
     1.0000   1.0000   1.0000   1.0000   1.0000   1.0000   1.0000   1.0000
     1.0000   1.0000   1.0086   1.0325  -0.0023  -0.0004  -0.0004  -0.0000
    -0.0000  -0.0000  -0.0000  -0.0000  -0.0000  -0.0000  -0.0000  -0.0000
    -0.0000  -0.0000  -0.0000  -0.0000  -0.0000  -0.0000  -0.0000  -0.0000
    -0.0000  -0.0000  -0.0000  -0.0000  -0.0000  -0.0000  -0.0000  -0.0000
    -0.0000  -0.0000  -0.0000  -0.0000  -0.0000  -0.0000  -0.0000  -0.0000
    -0.0000  -0.0000  -0.0000  -0.0000  -0.0000  -0.0000  -0.0000  -0.0000
    -0.0000  -0.0000  -0.0000  -0.0000  -0.0000  -0.0000  -0.0000  -0.0000
    -0.0000  -0.0000  -0.0000  -0.0000  -0.0000  -0.0000  -0.0000  -0.0000
    -0.0000  -0.0000  -0.0000  -0.0000  -0.0000  -0.0000  -0.0000  -0.0000
    -0.0000  -0.0000  -0.0000  -0.0000  -0.0000  -0.0000  -0.0000  -0.0000
    -0.0000  -0.0000  -0.0000  -0.0000  -0.0000  -0.0000  -0.0000  -0.0000
    -0.0000  -0.0000  -0.0000  -0.0000  -0.0000  -0.0000  -0.0000  -0.0000
    -0.0000  -0.0000  -0.0000  -0.0000  -0.0000  -0.0000  -0.0000  -0.0000
    -0.0000  -0.0000  -0.0000  -0.0000  -0.0000  -0.0000  -0.0000  -0.0000

          k =-0.2500 0.1443-0.4746 (554696 PWs)   bands (ev):

   -68.2851 -68.2849 -68.2848 -68.2848 -68.2846 -68.2846 -68.2846 -68.2846
   -68.2846 -68.2846 -68.2846 -68.2846 -68.2846 -68.2845 -68.2844 -68.2844
   -68.2842 -68.2841 -67.7467 -67.7456 -67.7455 -67.7452 -67.7448 -67.7446
   -67.7446 -67.7445 -67.7444 -67.7444 -67.7443 -67.7443 -67.7442 -67.7441
   -67.7441 -67.7441 -67.7441 -67.7440 -67.7439 -67.7439 -67.7438 -67.7438
   -67.7438 -67.7437 -67.7436 -67.7436 -67.7435 -67.7435 -67.7434 -67.7433
   -67.7433 -67.7431 -67.7428 -67.7424 -67.7423 -67.7412 -35.6961 -35.6960
   -35.6959 -35.6959 -35.6957 -35.6957 -35.6957 -35.6957 -35.6956 -35.6956
   -35.6956 -35.6956 -35.6956 -35.6956 -35.6954 -35.6954 -35.6953 -35.6952
   -35.6912 -35.6912 -35.6911 -35.6911 -35.6910 -35.6910 -35.6910 -35.6909
   -35.6908 -35.6908 -35.6908 -35.6908 -35.6908 -35.6908 -35.6907 -35.6907
   -35.6907 -35.6907 -35.6907 -35.6907 -35.6907 -35.6907 -35.6907 -35.6907
   -35.6907 -35.6907 -35.6906 -35.6906 -35.6905 -35.6905 -35.6905 -35.6905
   -35.6904 -35.6903 -35.6903 -35.6902 -35.1792 -35.1789 -35.1784 -35.1783
   -35.1782 -35.1781 -35.1779 -35.1778 -35.1777 -35.1776 -35.1775 -35.1775
   -35.1774 -35.1774 -35.1774 -35.1773 -35.1772 -35.1772 -35.1771 -35.1771
   -35.1771 -35.1771 -35.1771 -35.1770 -35.1770 -35.1769 -35.1769 -35.1768
   -35.1768 -35.1767 -35.1766 -35.1765 -35.1764 -35.1764 -35.1763 -35.1762
   -35.1762 -35.1761 -35.1760 -35.1759 -35.1758 -35.1758 -35.1757 -35.1757
   -35.1755 -35.1753 -35.1752 -35.1751 -35.1749 -35.1747 -35.1746 -35.1744
   -35.1742 -35.1733 -35.1720 -35.1716 -35.1715 -35.1712 -35.1712 -35.1710
   -35.1709 -35.1707 -35.1706 -35.1705 -35.1705 -35.1704 -35.1704 -35.1704
   -35.1703 -35.1702 -35.1701 -35.1701 -35.1700 -35.1698 -35.1698 -35.1696
   -35.1696 -35.1695 -35.1694 -35.1694 -35.1692 -35.1691 -35.1691 -35.1690
   -35.1689 -35.1689 -35.1687 -35.1687 -35.1686 -35.1686 -35.1685 -35.1684
   -35.1684 -35.1683 -35.1682 -35.1682 -35.1682 -35.1682 -35.1681 -35.1680
   -35.1680 -35.1678 -35.1677 -35.1676 -35.1673 -35.1672 -35.1669 -35.1663
   -14.2177 -14.2171 -14.2168 -14.2164 -14.2160 -14.2159 -14.2156 -14.2156
   -14.2153 -14.2149 -14.2147 -14.2145 -14.2143 -14.2142 -14.2142 -14.2139
   -14.2135 -14.2129 -14.2127 -14.2121 -14.2115 -14.2112 -14.2107 -14.2106
   -14.2104 -14.2103 -14.2102 -14.2100 -14.2099 -14.2099 -14.2098 -14.2096
   -14.2096 -14.2095 -14.2093 -14.2093 -14.2091 -14.2090 -14.2089 -14.2088
   -14.2088 -14.2087 -14.2087 -14.2086 -14.2085 -14.2085 -14.2082 -14.2082
   -14.2080 -14.2080 -14.2078 -14.2078 -14.2077 -14.2075 -14.2073 -14.2070
   -14.2067 -14.2063 -14.2061 -14.2053 -14.2050 -14.2049 -14.2047 -14.2045
   -14.2044 -14.2042 -14.2041 -14.2040 -14.2038 -14.2035 -14.2027 -14.2025
   -14.1901 -14.1887 -14.1884 -14.1877 -14.1875 -14.1874 -14.1872 -14.1871
   -14.1871 -14.1870 -14.1870 -14.1868 -14.1867 -14.1865 -14.1861 -14.1859
   -14.1851 -14.1849 -14.1848 -14.1848 -14.1846 -14.1844 -14.1841 -14.1840
   -14.1839 -14.1838 -14.1834 -14.1832 -14.1831 -14.1830 -14.1829 -14.1829
   -14.1826 -14.1824 -14.1823 -14.1808 -14.1747 -14.1745 -14.1740 -14.1740
   -14.1731 -14.1727 -14.1722 -14.1721 -14.1720 -14.1719 -14.1719 -14.1718
   -14.1717 -14.1716 -14.1715 -14.1711 -14.1710 -14.1708 -14.1707 -14.1707
   -14.1706 -14.1704 -14.1702 -14.1701 -14.1698 -14.1696 -14.1692 -14.1690
   -14.1688 -14.1682 -14.1681 -14.1674 -14.1656 -14.1654 -14.1653 -14.1651
   -14.1650 -14.1644 -14.1643 -14.1640 -14.1638 -14.1638 -14.1635 -14.1634
   -14.1632 -14.1630 -14.1628 -14.1626 -14.1623 -14.1619 -14.1618 -14.1613
   -14.1601 -14.1598 -14.1594 -14.1592 -14.1587 -14.1585 -14.1585 -14.1584
   -14.1581 -14.1580 -14.1578 -14.1577 -14.1576 -14.1574 -14.1572 -14.1571
   -14.1568 -14.1566 -14.1562 -14.1559  -3.5888  -3.5882  -3.3088  -3.3069
    -3.1884  -3.1882  -3.1861  -3.1858  -2.9944  -2.9942  -2.9903  -2.9901
    -2.9282  -2.9234  -2.8761  -2.8755  -2.7384  -2.7381  -2.7372  -2.7369
    -2.7235  -2.7205  -2.6709  -2.6707  -2.6675  -2.6673  -2.6136  -2.6134
    -2.6081  -2.6079  -2.6074  -2.6013  -2.5992  -2.5990  -2.5979  -2.5977
     3.1335   3.2198   3.3052   3.3052   3.4355   3.4356   3.4777   3.4782
     3.4783   3.4806   3.5070   3.5071   3.5827   3.5828   3.6189   3.7340
     3.7373   3.7374   3.8055   3.8274   3.8277   3.8690   3.8692   3.8827
     3.8978   3.8980   4.0320   4.0320   4.2032   4.2033   4.2639   4.2640
     4.2723   4.2724   4.4161   4.4162   4.5305   4.7539   4.9561   4.9562
     5.0415   5.0416   5.0437   5.0611   5.0612   5.0687   5.0689   5.1551
     5.1959   5.2380   5.3660   5.3663   5.3668   5.3671   5.7038   5.7040
     5.7314   5.7316   5.8664   5.8666   5.8669   5.8671   5.9016   5.9126
     5.9372   5.9373   5.9444   5.9445   6.0320   6.0763   6.3089   6.3461
     6.5409   6.5411   6.5461   6.5463   6.5540   6.5832   6.5833   6.6138
     6.6138   6.6534   6.6654   6.7217   6.8011   6.8011   6.8433   6.8434
     6.9333   6.9715   6.9897   6.9898   6.9898   6.9959   7.0232   7.0233
     7.1985   7.2550   7.2678   7.2940   7.2942   7.3002   7.3003   7.3489
     7.4295   7.5447   7.5736   7.6759   8.0363   8.3973   8.4414   8.4415
     8.5372   8.6555   8.6556   8.9556   8.9556   9.0792   9.1120   9.1120
     9.1273   9.1273   9.2047   9.3008   9.3651   9.3719   9.4428   9.4428
     9.4743   9.4744   9.5402   9.5403   9.5820   9.6228   9.6927   9.6927
     9.7332   9.8583   9.9947   9.9948  10.2826  10.2827  10.3156  10.3507
    10.3509  10.3878  10.3882  10.3883  10.3886  10.3890  10.5897  10.6836
    10.7960  10.7961  10.7988  10.7990  10.8563  10.8563  10.8753  10.8754
    10.9435  10.9842  10.9842  11.0047  11.0188  11.1498  11.1498  11.1674
    11.1675  11.2214  11.2310  11.3603  11.3604  11.4107  11.4109  11.4118
    11.4120  11.4340  11.4566  11.5511  11.5737  11.6032  11.6798  11.7430
    11.8149  11.8253  11.8497  11.8915  11.8915  11.9873  11.9875  12.0537
    12.0903  12.1691  12.1839  12.3093  12.3094  12.3110  12.3112  12.3148
    12.3149  12.3354  12.3619  12.5172  12.5175  12.5306  12.5306  12.5551
    12.5810  12.6487  12.6488  12.6641  12.6698  12.6784  12.6787  12.6982

     occupation numbers 
     1.0000   1.0000   1.0000   1.0000   1.0000   1.0000   1.0000   1.0000
     1.0000   1.0000   1.0000   1.0000   1.0000   1.0000   1.0000   1.0000
     1.0000   1.0000   1.0000   1.0000   1.0000   1.0000   1.0000   1.0000
     1.0000   1.0000   1.0000   1.0000   1.0000   1.0000   1.0000   1.0000
     1.0000   1.0000   1.0000   1.0000   1.0000   1.0000   1.0000   1.0000
     1.0000   1.0000   1.0000   1.0000   1.0000   1.0000   1.0000   1.0000
     1.0000   1.0000   1.0000   1.0000   1.0000   1.0000   1.0000   1.0000
     1.0000   1.0000   1.0000   1.0000   1.0000   1.0000   1.0000   1.0000
     1.0000   1.0000   1.0000   1.0000   1.0000   1.0000   1.0000   1.0000
     1.0000   1.0000   1.0000   1.0000   1.0000   1.0000   1.0000   1.0000
     1.0000   1.0000   1.0000   1.0000   1.0000   1.0000   1.0000   1.0000
     1.0000   1.0000   1.0000   1.0000   1.0000   1.0000   1.0000   1.0000
     1.0000   1.0000   1.0000   1.0000   1.0000   1.0000   1.0000   1.0000
     1.0000   1.0000   1.0000   1.0000   1.0000   1.0000   1.0000   1.0000
     1.0000   1.0000   1.0000   1.0000   1.0000   1.0000   1.0000   1.0000
     1.0000   1.0000   1.0000   1.0000   1.0000   1.0000   1.0000   1.0000
     1.0000   1.0000   1.0000   1.0000   1.0000   1.0000   1.0000   1.0000
     1.0000   1.0000   1.0000   1.0000   1.0000   1.0000   1.0000   1.0000
     1.0000   1.0000   1.0000   1.0000   1.0000   1.0000   1.0000   1.0000
     1.0000   1.0000   1.0000   1.0000   1.0000   1.0000   1.0000   1.0000
     1.0000   1.0000   1.0000   1.0000   1.0000   1.0000   1.0000   1.0000
     1.0000   1.0000   1.0000   1.0000   1.0000   1.0000   1.0000   1.0000
     1.0000   1.0000   1.0000   1.0000   1.0000   1.0000   1.0000   1.0000
     1.0000   1.0000   1.0000   1.0000   1.0000   1.0000   1.0000   1.0000
     1.0000   1.0000   1.0000   1.0000   1.0000   1.0000   1.0000   1.0000
     1.0000   1.0000   1.0000   1.0000   1.0000   1.0000   1.0000   1.0000
     1.0000   1.0000   1.0000   1.0000   1.0000   1.0000   1.0000   1.0000
     1.0000   1.0000   1.0000   1.0000   1.0000   1.0000   1.0000   1.0000
     1.0000   1.0000   1.0000   1.0000   1.0000   1.0000   1.0000   1.0000
     1.0000   1.0000   1.0000   1.0000   1.0000   1.0000   1.0000   1.0000
     1.0000   1.0000   1.0000   1.0000   1.0000   1.0000   1.0000   1.0000
     1.0000   1.0000   1.0000   1.0000   1.0000   1.0000   1.0000   1.0000
     1.0000   1.0000   1.0000   1.0000   1.0000   1.0000   1.0000   1.0000
     1.0000   1.0000   1.0000   1.0000   1.0000   1.0000   1.0000   1.0000
     1.0000   1.0000   1.0000   1.0000   1.0000   1.0000   1.0000   1.0000
     1.0000   1.0000   1.0000   1.0000   1.0000   1.0000   1.0000   1.0000
     1.0000   1.0000   1.0000   1.0000   1.0000   1.0000   1.0000   1.0000
     1.0000   1.0000   1.0000   1.0000   1.0000   1.0000   1.0000   1.0000
     1.0000   1.0000   1.0000   1.0000   1.0000   1.0000   1.0000   1.0000
     1.0000   1.0000   1.0000   1.0000   1.0000   1.0000   1.0000   1.0000
     1.0000   1.0000   1.0000   1.0000   1.0000   1.0000   1.0000   1.0000
     1.0000   1.0000   1.0000   1.0000   1.0000   1.0000   1.0000   1.0000
     1.0000   1.0000   1.0000   1.0000   1.0000   1.0000   1.0000   1.0000
     1.0000   1.0000   1.0000   1.0000   1.0000   1.0000   1.0000   1.0000
     1.0000   1.0000   1.0000   1.0000   1.0000   1.0000   1.0000   1.0000
     1.0000   1.0000   1.0000   1.0000   1.0000   1.0000   1.0000   1.0000
     1.0000   1.0000   1.0000   1.0000   1.0000   1.0000   1.0000   1.0000
     1.0000   1.0000   1.0000   1.0000   1.0000   1.0000   1.0000   1.0000
     1.0000   1.0000   1.0000   1.0000   1.0000   1.0000   1.0000   1.0000
     1.0000   1.0000   1.0000   1.0000   1.0000   1.0000   1.0000   1.0000
     1.0000   1.0000   1.0000   1.0000   1.0000   1.0000   1.0000   1.0000
     1.0000   1.0000   1.0000   1.0000   1.0000   1.0000   1.0000   1.0000
     1.0000   1.0000   1.0000   1.0000   1.0000   1.0000   1.0000   1.0000
     1.0000   1.0000   1.0000   1.0000   1.0000   1.0000   1.0000   1.0000
     1.0000   1.0000   1.0000   1.0000   1.0000   1.0000   1.0000   1.0000
     1.0000   1.0000   1.0000   1.0000   1.0000   1.0000   1.0000   1.0000
     1.0000   1.0000   1.0000   1.0000   1.0000   1.0000   1.0000   1.0000
     1.0000   1.0000   1.0000   1.0000   1.0000   1.0000   1.0000   1.0000
     1.0000   1.0000   1.0000   1.0000   1.0000   1.0000   1.0000   1.0000
     1.0000   1.0000   1.0000   1.0000   1.0000   1.0000   1.0000   1.0000
     1.0000   1.0000   1.0000   1.0000   1.0000   1.0000   1.0000   1.0000
     1.0000   1.0000   1.0000   1.0000   1.0000   1.0000   1.0000   1.0000
     1.0000   1.0000   1.0000   1.0000   1.0000   1.0000   1.0000   1.0000
     1.0000   1.0000   1.0000   1.0000   1.0000   1.0000   1.0000   1.0000
     1.0000   1.0000   1.0000   1.0000   1.0000   1.0000   1.0000   1.0000
     1.0000   1.0000   1.0000   1.0000   1.0000   1.0000   1.0000   1.0000
     1.0000   1.0000   1.0000   1.0000   1.0000   1.0000   1.0000   1.0000
     1.0000   1.0000   1.0001   1.0037   0.1712  -0.0001  -0.0000  -0.0000
    -0.0000  -0.0000  -0.0000  -0.0000  -0.0000  -0.0000  -0.0000  -0.0000
    -0.0000  -0.0000  -0.0000  -0.0000  -0.0000  -0.0000  -0.0000  -0.0000
    -0.0000  -0.0000  -0.0000  -0.0000  -0.0000  -0.0000  -0.0000  -0.0000
    -0.0000  -0.0000  -0.0000  -0.0000  -0.0000  -0.0000  -0.0000  -0.0000
    -0.0000  -0.0000  -0.0000  -0.0000  -0.0000  -0.0000  -0.0000  -0.0000
    -0.0000  -0.0000  -0.0000  -0.0000  -0.0000  -0.0000  -0.0000  -0.0000
    -0.0000  -0.0000  -0.0000  -0.0000  -0.0000  -0.0000  -0.0000  -0.0000
    -0.0000  -0.0000  -0.0000  -0.0000  -0.0000  -0.0000  -0.0000  -0.0000
    -0.0000  -0.0000  -0.0000  -0.0000  -0.0000  -0.0000  -0.0000  -0.0000
    -0.0000  -0.0000  -0.0000  -0.0000  -0.0000  -0.0000  -0.0000  -0.0000
    -0.0000  -0.0000  -0.0000  -0.0000  -0.0000  -0.0000  -0.0000  -0.0000
    -0.0000  -0.0000  -0.0000  -0.0000  -0.0000  -0.0000  -0.0000  -0.0000
    -0.0000  -0.0000  -0.0000  -0.0000  -0.0000  -0.0000  -0.0000  -0.0000

          k = 0.2500 0.1443-0.4746 (554696 PWs)   bands (ev):

   -68.2851 -68.2849 -68.2848 -68.2848 -68.2846 -68.2846 -68.2846 -68.2846
   -68.2846 -68.2846 -68.2846 -68.2846 -68.2846 -68.2845 -68.2844 -68.2844
   -68.2842 -68.2841 -67.7467 -67.7456 -67.7455 -67.7452 -67.7448 -67.7446
   -67.7446 -67.7445 -67.7444 -67.7444 -67.7444 -67.7443 -67.7442 -67.7442
   -67.7441 -67.7441 -67.7440 -67.7440 -67.7439 -67.7439 -67.7438 -67.7438
   -67.7438 -67.7437 -67.7436 -67.7436 -67.7435 -67.7435 -67.7434 -67.7433
   -67.7433 -67.7431 -67.7428 -67.7424 -67.7423 -67.7412 -35.6961 -35.6960
   -35.6959 -35.6959 -35.6957 -35.6957 -35.6957 -35.6957 -35.6956 -35.6956
   -35.6956 -35.6956 -35.6956 -35.6956 -35.6954 -35.6954 -35.6953 -35.6952
   -35.6912 -35.6912 -35.6911 -35.6911 -35.6910 -35.6910 -35.6910 -35.6909
   -35.6908 -35.6908 -35.6908 -35.6908 -35.6908 -35.6908 -35.6907 -35.6907
   -35.6907 -35.6907 -35.6907 -35.6907 -35.6907 -35.6907 -35.6907 -35.6907
   -35.6907 -35.6907 -35.6906 -35.6906 -35.6905 -35.6905 -35.6905 -35.6905
   -35.6904 -35.6903 -35.6903 -35.6902 -35.1792 -35.1789 -35.1784 -35.1783
   -35.1782 -35.1781 -35.1779 -35.1778 -35.1777 -35.1776 -35.1775 -35.1774
   -35.1774 -35.1774 -35.1774 -35.1773 -35.1773 -35.1772 -35.1771 -35.1771
   -35.1771 -35.1771 -35.1771 -35.1770 -35.1770 -35.1770 -35.1768 -35.1768
   -35.1767 -35.1767 -35.1766 -35.1765 -35.1765 -35.1764 -35.1763 -35.1763
   -35.1762 -35.1761 -35.1761 -35.1760 -35.1758 -35.1757 -35.1757 -35.1756
   -35.1755 -35.1754 -35.1752 -35.1751 -35.1750 -35.1746 -35.1745 -35.1744
   -35.1743 -35.1733 -35.1721 -35.1716 -35.1714 -35.1712 -35.1712 -35.1710
   -35.1710 -35.1708 -35.1706 -35.1706 -35.1705 -35.1704 -35.1704 -35.1703
   -35.1703 -35.1702 -35.1702 -35.1701 -35.1700 -35.1698 -35.1697 -35.1696
   -35.1695 -35.1695 -35.1694 -35.1693 -35.1693 -35.1692 -35.1691 -35.1690
   -35.1689 -35.1689 -35.1688 -35.1687 -35.1685 -35.1685 -35.1685 -35.1684
   -35.1684 -35.1683 -35.1683 -35.1682 -35.1682 -35.1681 -35.1681 -35.1680
   -35.1679 -35.1678 -35.1677 -35.1677 -35.1673 -35.1672 -35.1669 -35.1663
   -14.2177 -14.2172 -14.2167 -14.2165 -14.2161 -14.2159 -14.2156 -14.2156
   -14.2153 -14.2149 -14.2148 -14.2144 -14.2143 -14.2142 -14.2141 -14.2141
   -14.2132 -14.2130 -14.2126 -14.2122 -14.2114 -14.2111 -14.2108 -14.2106
   -14.2105 -14.2103 -14.2102 -14.2102 -14.2099 -14.2098 -14.2098 -14.2097
   -14.2096 -14.2094 -14.2094 -14.2092 -14.2092 -14.2089 -14.2089 -14.2088
   -14.2088 -14.2087 -14.2087 -14.2086 -14.2085 -14.2084 -14.2083 -14.2082
   -14.2081 -14.2079 -14.2078 -14.2077 -14.2076 -14.2075 -14.2073 -14.2072
   -14.2066 -14.2063 -14.2061 -14.2052 -14.2051 -14.2049 -14.2048 -14.2046
   -14.2043 -14.2043 -14.2041 -14.2040 -14.2039 -14.2034 -14.2028 -14.2024
   -14.1901 -14.1887 -14.1882 -14.1878 -14.1875 -14.1873 -14.1872 -14.1871
   -14.1870 -14.1870 -14.1869 -14.1868 -14.1867 -14.1867 -14.1861 -14.1859
   -14.1851 -14.1850 -14.1848 -14.1848 -14.1845 -14.1843 -14.1841 -14.1840
   -14.1839 -14.1838 -14.1832 -14.1832 -14.1831 -14.1830 -14.1829 -14.1828
   -14.1828 -14.1825 -14.1822 -14.1809 -14.1747 -14.1745 -14.1740 -14.1740
   -14.1728 -14.1727 -14.1723 -14.1722 -14.1719 -14.1719 -14.1719 -14.1718
   -14.1717 -14.1717 -14.1716 -14.1713 -14.1710 -14.1709 -14.1707 -14.1707
   -14.1705 -14.1705 -14.1701 -14.1700 -14.1698 -14.1694 -14.1691 -14.1690
   -14.1688 -14.1681 -14.1681 -14.1675 -14.1656 -14.1655 -14.1653 -14.1651
   -14.1650 -14.1643 -14.1643 -14.1640 -14.1639 -14.1638 -14.1635 -14.1634
   -14.1632 -14.1632 -14.1627 -14.1625 -14.1622 -14.1620 -14.1616 -14.1613
   -14.1599 -14.1598 -14.1596 -14.1593 -14.1586 -14.1585 -14.1585 -14.1584
   -14.1582 -14.1579 -14.1578 -14.1578 -14.1575 -14.1574 -14.1572 -14.1571
   -14.1569 -14.1566 -14.1564 -14.1558  -3.5888  -3.5882  -3.3088  -3.3068
    -3.1884  -3.1882  -3.1861  -3.1858  -2.9944  -2.9942  -2.9903  -2.9901
    -2.9282  -2.9234  -2.8761  -2.8755  -2.7384  -2.7381  -2.7372  -2.7369
    -2.7235  -2.7205  -2.6709  -2.6707  -2.6675  -2.6673  -2.6136  -2.6134
    -2.6081  -2.6079  -2.6074  -2.6013  -2.5992  -2.5990  -2.5979  -2.5976
     3.1335   3.2198   3.3052   3.3052   3.4355   3.4356   3.4777   3.4782
     3.4782   3.4806   3.5070   3.5071   3.5827   3.5828   3.6189   3.7340
     3.7373   3.7374   3.8055   3.8274   3.8277   3.8690   3.8692   3.8827
     3.8978   3.8980   4.0320   4.0320   4.2032   4.2033   4.2639   4.2640
     4.2723   4.2724   4.4161   4.4162   4.5305   4.7539   4.9561   4.9562
     5.0415   5.0416   5.0436   5.0611   5.0612   5.0687   5.0688   5.1551
     5.1959   5.2380   5.3661   5.3663   5.3668   5.3671   5.7038   5.7040
     5.7315   5.7316   5.8664   5.8666   5.8669   5.8671   5.9016   5.9126
     5.9372   5.9373   5.9444   5.9445   6.0320   6.0763   6.3089   6.3461
     6.5409   6.5411   6.5461   6.5463   6.5540   6.5831   6.5833   6.6138
     6.6138   6.6534   6.6654   6.7217   6.8011   6.8011   6.8433   6.8434
     6.9333   6.9715   6.9897   6.9898   6.9899   6.9959   7.0232   7.0233
     7.1985   7.2550   7.2678   7.2940   7.2942   7.3002   7.3003   7.3489
     7.4295   7.5447   7.5736   7.6759   8.0363   8.3973   8.4414   8.4415
     8.5372   8.6555   8.6556   8.9556   8.9556   9.0792   9.1120   9.1120
     9.1273   9.1273   9.2047   9.3008   9.3651   9.3719   9.4428   9.4428
     9.4743   9.4744   9.5402   9.5403   9.5820   9.6228   9.6927   9.6927
     9.7332   9.8583   9.9947   9.9948  10.2826  10.2827  10.3156  10.3507
    10.3509  10.3881  10.3882  10.3883  10.3886  10.3887  10.5897  10.6836
    10.7961  10.7962  10.7988  10.7990  10.8563  10.8563  10.8753  10.8754
    10.9435  10.9842  10.9842  11.0046  11.0188  11.1498  11.1498  11.1674
    11.1675  11.2214  11.2310  11.3603  11.3604  11.4109  11.4109  11.4117
    11.4118  11.4340  11.4566  11.5511  11.5737  11.6032  11.6798  11.7430
    11.8149  11.8253  11.8497  11.8915  11.8915  11.9873  11.9875  12.0537
    12.0903  12.1691  12.1839  12.3093  12.3094  12.3110  12.3113  12.3148
    12.3149  12.3354  12.3619  12.5172  12.5174  12.5306  12.5306  12.5551
    12.5808  12.6487  12.6488  12.6641  12.6784  12.6785  12.6938  12.6982

     occupation numbers 
     1.0000   1.0000   1.0000   1.0000   1.0000   1.0000   1.0000   1.0000
     1.0000   1.0000   1.0000   1.0000   1.0000   1.0000   1.0000   1.0000
     1.0000   1.0000   1.0000   1.0000   1.0000   1.0000   1.0000   1.0000
     1.0000   1.0000   1.0000   1.0000   1.0000   1.0000   1.0000   1.0000
     1.0000   1.0000   1.0000   1.0000   1.0000   1.0000   1.0000   1.0000
     1.0000   1.0000   1.0000   1.0000   1.0000   1.0000   1.0000   1.0000
     1.0000   1.0000   1.0000   1.0000   1.0000   1.0000   1.0000   1.0000
     1.0000   1.0000   1.0000   1.0000   1.0000   1.0000   1.0000   1.0000
     1.0000   1.0000   1.0000   1.0000   1.0000   1.0000   1.0000   1.0000
     1.0000   1.0000   1.0000   1.0000   1.0000   1.0000   1.0000   1.0000
     1.0000   1.0000   1.0000   1.0000   1.0000   1.0000   1.0000   1.0000
     1.0000   1.0000   1.0000   1.0000   1.0000   1.0000   1.0000   1.0000
     1.0000   1.0000   1.0000   1.0000   1.0000   1.0000   1.0000   1.0000
     1.0000   1.0000   1.0000   1.0000   1.0000   1.0000   1.0000   1.0000
     1.0000   1.0000   1.0000   1.0000   1.0000   1.0000   1.0000   1.0000
     1.0000   1.0000   1.0000   1.0000   1.0000   1.0000   1.0000   1.0000
     1.0000   1.0000   1.0000   1.0000   1.0000   1.0000   1.0000   1.0000
     1.0000   1.0000   1.0000   1.0000   1.0000   1.0000   1.0000   1.0000
     1.0000   1.0000   1.0000   1.0000   1.0000   1.0000   1.0000   1.0000
     1.0000   1.0000   1.0000   1.0000   1.0000   1.0000   1.0000   1.0000
     1.0000   1.0000   1.0000   1.0000   1.0000   1.0000   1.0000   1.0000
     1.0000   1.0000   1.0000   1.0000   1.0000   1.0000   1.0000   1.0000
     1.0000   1.0000   1.0000   1.0000   1.0000   1.0000   1.0000   1.0000
     1.0000   1.0000   1.0000   1.0000   1.0000   1.0000   1.0000   1.0000
     1.0000   1.0000   1.0000   1.0000   1.0000   1.0000   1.0000   1.0000
     1.0000   1.0000   1.0000   1.0000   1.0000   1.0000   1.0000   1.0000
     1.0000   1.0000   1.0000   1.0000   1.0000   1.0000   1.0000   1.0000
     1.0000   1.0000   1.0000   1.0000   1.0000   1.0000   1.0000   1.0000
     1.0000   1.0000   1.0000   1.0000   1.0000   1.0000   1.0000   1.0000
     1.0000   1.0000   1.0000   1.0000   1.0000   1.0000   1.0000   1.0000
     1.0000   1.0000   1.0000   1.0000   1.0000   1.0000   1.0000   1.0000
     1.0000   1.0000   1.0000   1.0000   1.0000   1.0000   1.0000   1.0000
     1.0000   1.0000   1.0000   1.0000   1.0000   1.0000   1.0000   1.0000
     1.0000   1.0000   1.0000   1.0000   1.0000   1.0000   1.0000   1.0000
     1.0000   1.0000   1.0000   1.0000   1.0000   1.0000   1.0000   1.0000
     1.0000   1.0000   1.0000   1.0000   1.0000   1.0000   1.0000   1.0000
     1.0000   1.0000   1.0000   1.0000   1.0000   1.0000   1.0000   1.0000
     1.0000   1.0000   1.0000   1.0000   1.0000   1.0000   1.0000   1.0000
     1.0000   1.0000   1.0000   1.0000   1.0000   1.0000   1.0000   1.0000
     1.0000   1.0000   1.0000   1.0000   1.0000   1.0000   1.0000   1.0000
     1.0000   1.0000   1.0000   1.0000   1.0000   1.0000   1.0000   1.0000
     1.0000   1.0000   1.0000   1.0000   1.0000   1.0000   1.0000   1.0000
     1.0000   1.0000   1.0000   1.0000   1.0000   1.0000   1.0000   1.0000
     1.0000   1.0000   1.0000   1.0000   1.0000   1.0000   1.0000   1.0000
     1.0000   1.0000   1.0000   1.0000   1.0000   1.0000   1.0000   1.0000
     1.0000   1.0000   1.0000   1.0000   1.0000   1.0000   1.0000   1.0000
     1.0000   1.0000   1.0000   1.0000   1.0000   1.0000   1.0000   1.0000
     1.0000   1.0000   1.0000   1.0000   1.0000   1.0000   1.0000   1.0000
     1.0000   1.0000   1.0000   1.0000   1.0000   1.0000   1.0000   1.0000
     1.0000   1.0000   1.0000   1.0000   1.0000   1.0000   1.0000   1.0000
     1.0000   1.0000   1.0000   1.0000   1.0000   1.0000   1.0000   1.0000
     1.0000   1.0000   1.0000   1.0000   1.0000   1.0000   1.0000   1.0000
     1.0000   1.0000   1.0000   1.0000   1.0000   1.0000   1.0000   1.0000
     1.0000   1.0000   1.0000   1.0000   1.0000   1.0000   1.0000   1.0000
     1.0000   1.0000   1.0000   1.0000   1.0000   1.0000   1.0000   1.0000
     1.0000   1.0000   1.0000   1.0000   1.0000   1.0000   1.0000   1.0000
     1.0000   1.0000   1.0000   1.0000   1.0000   1.0000   1.0000   1.0000
     1.0000   1.0000   1.0000   1.0000   1.0000   1.0000   1.0000   1.0000
     1.0000   1.0000   1.0000   1.0000   1.0000   1.0000   1.0000   1.0000
     1.0000   1.0000   1.0000   1.0000   1.0000   1.0000   1.0000   1.0000
     1.0000   1.0000   1.0000   1.0000   1.0000   1.0000   1.0000   1.0000
     1.0000   1.0000   1.0000   1.0000   1.0000   1.0000   1.0000   1.0000
     1.0000   1.0000   1.0000   1.0000   1.0000   1.0000   1.0000   1.0000
     1.0000   1.0000   1.0000   1.0000   1.0000   1.0000   1.0000   1.0000
     1.0000   1.0000   1.0000   1.0000   1.0000   1.0000   1.0000   1.0000
     1.0000   1.0000   1.0000   1.0000   1.0000   1.0000   1.0000   1.0000
     1.0000   1.0000   1.0000   1.0000   1.0000   1.0000   1.0000   1.0000
     1.0000   1.0000   1.0001   1.0037   0.1712  -0.0001  -0.0000  -0.0000
    -0.0000  -0.0000  -0.0000  -0.0000  -0.0000  -0.0000  -0.0000  -0.0000
    -0.0000  -0.0000  -0.0000  -0.0000  -0.0000  -0.0000  -0.0000  -0.0000
    -0.0000  -0.0000  -0.0000  -0.0000  -0.0000  -0.0000  -0.0000  -0.0000
    -0.0000  -0.0000  -0.0000  -0.0000  -0.0000  -0.0000  -0.0000  -0.0000
    -0.0000  -0.0000  -0.0000  -0.0000  -0.0000  -0.0000  -0.0000  -0.0000
    -0.0000  -0.0000  -0.0000  -0.0000  -0.0000  -0.0000  -0.0000  -0.0000
    -0.0000  -0.0000  -0.0000  -0.0000  -0.0000  -0.0000  -0.0000  -0.0000
    -0.0000  -0.0000  -0.0000  -0.0000  -0.0000  -0.0000  -0.0000  -0.0000
    -0.0000  -0.0000  -0.0000  -0.0000  -0.0000  -0.0000  -0.0000  -0.0000
    -0.0000  -0.0000  -0.0000  -0.0000  -0.0000  -0.0000  -0.0000  -0.0000
    -0.0000  -0.0000  -0.0000  -0.0000  -0.0000  -0.0000  -0.0000  -0.0000
    -0.0000  -0.0000  -0.0000  -0.0000  -0.0000  -0.0000  -0.0000  -0.0000
    -0.0000  -0.0000  -0.0000  -0.0000  -0.0000  -0.0000  -0.0000  -0.0000

          k = 0.5000-0.2887 0.0000 (554524 PWs)   bands (ev):

   -68.2851 -68.2849 -68.2848 -68.2848 -68.2846 -68.2846 -68.2846 -68.2846
   -68.2846 -68.2846 -68.2846 -68.2846 -68.2846 -68.2845 -68.2844 -68.2844
   -68.2842 -68.2841 -67.7467 -67.7456 -67.7455 -67.7452 -67.7448 -67.7446
   -67.7446 -67.7445 -67.7444 -67.7444 -67.7443 -67.7443 -67.7442 -67.7441
   -67.7441 -67.7441 -67.7441 -67.7440 -67.7439 -67.7438 -67.7438 -67.7438
   -67.7438 -67.7437 -67.7436 -67.7436 -67.7435 -67.7435 -67.7434 -67.7433
   -67.7433 -67.7431 -67.7428 -67.7424 -67.7423 -67.7412 -35.6961 -35.6960
   -35.6959 -35.6959 -35.6957 -35.6957 -35.6957 -35.6957 -35.6956 -35.6956
   -35.6956 -35.6956 -35.6956 -35.6956 -35.6954 -35.6954 -35.6953 -35.6952
   -35.6912 -35.6912 -35.6911 -35.6911 -35.6910 -35.6910 -35.6910 -35.6909
   -35.6908 -35.6908 -35.6908 -35.6908 -35.6908 -35.6908 -35.6907 -35.6907
   -35.6907 -35.6907 -35.6907 -35.6907 -35.6907 -35.6907 -35.6907 -35.6907
   -35.6907 -35.6907 -35.6906 -35.6906 -35.6905 -35.6905 -35.6905 -35.6905
   -35.6904 -35.6903 -35.6903 -35.6902 -35.1792 -35.1789 -35.1785 -35.1784
   -35.1782 -35.1781 -35.1780 -35.1778 -35.1777 -35.1776 -35.1775 -35.1775
   -35.1774 -35.1774 -35.1774 -35.1773 -35.1772 -35.1772 -35.1772 -35.1771
   -35.1771 -35.1771 -35.1770 -35.1770 -35.1769 -35.1769 -35.1769 -35.1768
   -35.1768 -35.1766 -35.1766 -35.1765 -35.1765 -35.1764 -35.1764 -35.1763
   -35.1762 -35.1761 -35.1761 -35.1760 -35.1757 -35.1757 -35.1756 -35.1756
   -35.1755 -35.1753 -35.1751 -35.1750 -35.1749 -35.1749 -35.1746 -35.1745
   -35.1738 -35.1736 -35.1719 -35.1716 -35.1715 -35.1712 -35.1712 -35.1709
   -35.1708 -35.1707 -35.1706 -35.1706 -35.1705 -35.1705 -35.1704 -35.1703
   -35.1703 -35.1702 -35.1702 -35.1700 -35.1700 -35.1699 -35.1699 -35.1698
   -35.1696 -35.1696 -35.1694 -35.1693 -35.1692 -35.1691 -35.1690 -35.1689
   -35.1689 -35.1688 -35.1688 -35.1687 -35.1686 -35.1685 -35.1685 -35.1684
   -35.1683 -35.1683 -35.1682 -35.1682 -35.1682 -35.1682 -35.1681 -35.1680
   -35.1680 -35.1678 -35.1677 -35.1676 -35.1673 -35.1672 -35.1670 -35.1663
   -14.2179 -14.2169 -14.2167 -14.2163 -14.2158 -14.2156 -14.2153 -14.2152
   -14.2150 -14.2148 -14.2146 -14.2145 -14.2145 -14.2144 -14.2142 -14.2140
   -14.2135 -14.2134 -14.2121 -14.2119 -14.2115 -14.2113 -14.2111 -14.2111
   -14.2107 -14.2107 -14.2105 -14.2104 -14.2103 -14.2103 -14.2102 -14.2100
   -14.2099 -14.2099 -14.2096 -14.2092 -14.2091 -14.2089 -14.2088 -14.2085
   -14.2084 -14.2084 -14.2082 -14.2081 -14.2080 -14.2079 -14.2078 -14.2078
   -14.2076 -14.2076 -14.2076 -14.2073 -14.2072 -14.2071 -14.2069 -14.2069
   -14.2067 -14.2066 -14.2064 -14.2060 -14.2058 -14.2055 -14.2053 -14.2050
   -14.2048 -14.2044 -14.2041 -14.2038 -14.2035 -14.2032 -14.2024 -14.2023
   -14.1899 -14.1886 -14.1882 -14.1879 -14.1877 -14.1875 -14.1873 -14.1869
   -14.1867 -14.1865 -14.1865 -14.1863 -14.1862 -14.1862 -14.1858 -14.1858
   -14.1856 -14.1854 -14.1853 -14.1853 -14.1852 -14.1850 -14.1845 -14.1844
   -14.1842 -14.1841 -14.1833 -14.1831 -14.1830 -14.1829 -14.1828 -14.1827
   -14.1825 -14.1823 -14.1820 -14.1808 -14.1744 -14.1740 -14.1735 -14.1734
   -14.1733 -14.1732 -14.1732 -14.1731 -14.1724 -14.1723 -14.1720 -14.1719
   -14.1717 -14.1717 -14.1715 -14.1714 -14.1711 -14.1710 -14.1707 -14.1707
   -14.1705 -14.1705 -14.1704 -14.1701 -14.1697 -14.1690 -14.1681 -14.1674
   -14.1672 -14.1671 -14.1670 -14.1668 -14.1667 -14.1666 -14.1666 -14.1662
   -14.1659 -14.1652 -14.1642 -14.1639 -14.1638 -14.1638 -14.1637 -14.1636
   -14.1634 -14.1630 -14.1621 -14.1620 -14.1620 -14.1617 -14.1609 -14.1607
   -14.1606 -14.1604 -14.1592 -14.1590 -14.1588 -14.1586 -14.1586 -14.1585
   -14.1583 -14.1581 -14.1579 -14.1579 -14.1577 -14.1576 -14.1572 -14.1570
   -14.1568 -14.1565 -14.1561 -14.1556  -3.5717  -3.5713  -3.3138  -3.3133
    -3.2956  -3.2953  -3.0766  -3.0763  -3.0224  -3.0220  -2.9086  -2.9084
    -2.9083  -2.9081  -2.8852  -2.8455  -2.8453  -2.7801  -2.7799  -2.7799
    -2.7797  -2.7650  -2.6757  -2.6690  -2.6689  -2.6688  -2.6686  -2.6655
    -2.6651  -2.5710  -2.5708  -2.5653  -2.5447  -2.5445  -2.5444  -2.5443
     2.9703   3.2045   3.2195   3.2200   3.2804   3.2808   3.2813   3.2818
     3.3888   3.5013   3.5017   3.5020   3.5024   3.5750   3.5754   3.5757
     3.5762   3.6927   3.6930   3.9518   3.9519   4.0314   4.0314   4.1589
     4.2800   4.2807   4.2809   4.2816   4.3693   4.3695   4.5499   4.5501
     4.5623   4.5626   4.5626   4.5629   4.6070   4.6073   4.6301   4.6303
     4.6855   4.9404   4.9406   4.9407   4.9409   5.0605   5.0606   5.0607
     5.0608   5.4197   5.4197   5.4967   5.4970   5.4971   5.4974   5.7071
     5.7995   5.8027   5.8028   6.0079   6.0080   6.0583   6.0583   6.0638
     6.0639   6.1149   6.1151   6.1153   6.1155   6.1338   6.1581   6.3349
     6.3351   6.3446   6.3450   6.3451   6.3456   6.4668   6.4670   6.4699
     6.4700   6.4895   6.4895   6.5017   6.5182   6.5184   6.5271   6.7377
     6.7379   6.7383   6.7385   6.8688   6.8690   6.8691   6.8693   6.9065
     6.9067   6.9245   6.9245   7.1518   7.1519   7.1858   7.1859   7.2639
     7.7359   7.7360   7.8218   7.8223   8.2803   8.4091   8.8506   8.8507
     8.8508   8.8508   9.0688   9.1753   9.1755   9.1755   9.1758   9.3658
     9.3659   9.5386   9.5388   9.6129   9.6130   9.6131   9.6133   9.6180
     9.6181   9.6217   9.6217   9.6280   9.6281   9.6653   9.7029  10.0582
    10.0585  10.0631  10.0631  10.0632  10.0632  10.2339  10.2490  10.4488
    10.4490  10.5445  10.5446  10.6257  10.6258  10.7825  10.7829  10.7899
    10.7902  10.7904  10.7906  10.8399  10.8401  10.8500  10.8696  10.8697
    10.9330  10.9332  10.9332  10.9334  11.0547  11.0549  11.0954  11.0959
    11.0959  11.0964  11.2566  11.2567  11.2789  11.2791  11.2792  11.2794
    11.3078  11.3083  11.3279  11.3281  11.3753  11.3755  11.4343  11.4347
    11.4972  11.4977  11.6019  11.6020  11.7057  11.7057  11.8303  11.8305
    11.8307  11.8309  11.9049  11.9053  12.0288  12.0288  12.0289  12.0289
    12.1192  12.1195  12.3008  12.3010  12.3510  12.3512  12.3532  12.3532
    12.4855  12.4861  12.5633  12.5639  12.5726  12.6901  12.6902  12.8097

     occupation numbers 
     1.0000   1.0000   1.0000   1.0000   1.0000   1.0000   1.0000   1.0000
     1.0000   1.0000   1.0000   1.0000   1.0000   1.0000   1.0000   1.0000
     1.0000   1.0000   1.0000   1.0000   1.0000   1.0000   1.0000   1.0000
     1.0000   1.0000   1.0000   1.0000   1.0000   1.0000   1.0000   1.0000
     1.0000   1.0000   1.0000   1.0000   1.0000   1.0000   1.0000   1.0000
     1.0000   1.0000   1.0000   1.0000   1.0000   1.0000   1.0000   1.0000
     1.0000   1.0000   1.0000   1.0000   1.0000   1.0000   1.0000   1.0000
     1.0000   1.0000   1.0000   1.0000   1.0000   1.0000   1.0000   1.0000
     1.0000   1.0000   1.0000   1.0000   1.0000   1.0000   1.0000   1.0000
     1.0000   1.0000   1.0000   1.0000   1.0000   1.0000   1.0000   1.0000
     1.0000   1.0000   1.0000   1.0000   1.0000   1.0000   1.0000   1.0000
     1.0000   1.0000   1.0000   1.0000   1.0000   1.0000   1.0000   1.0000
     1.0000   1.0000   1.0000   1.0000   1.0000   1.0000   1.0000   1.0000
     1.0000   1.0000   1.0000   1.0000   1.0000   1.0000   1.0000   1.0000
     1.0000   1.0000   1.0000   1.0000   1.0000   1.0000   1.0000   1.0000
     1.0000   1.0000   1.0000   1.0000   1.0000   1.0000   1.0000   1.0000
     1.0000   1.0000   1.0000   1.0000   1.0000   1.0000   1.0000   1.0000
     1.0000   1.0000   1.0000   1.0000   1.0000   1.0000   1.0000   1.0000
     1.0000   1.0000   1.0000   1.0000   1.0000   1.0000   1.0000   1.0000
     1.0000   1.0000   1.0000   1.0000   1.0000   1.0000   1.0000   1.0000
     1.0000   1.0000   1.0000   1.0000   1.0000   1.0000   1.0000   1.0000
     1.0000   1.0000   1.0000   1.0000   1.0000   1.0000   1.0000   1.0000
     1.0000   1.0000   1.0000   1.0000   1.0000   1.0000   1.0000   1.0000
     1.0000   1.0000   1.0000   1.0000   1.0000   1.0000   1.0000   1.0000
     1.0000   1.0000   1.0000   1.0000   1.0000   1.0000   1.0000   1.0000
     1.0000   1.0000   1.0000   1.0000   1.0000   1.0000   1.0000   1.0000
     1.0000   1.0000   1.0000   1.0000   1.0000   1.0000   1.0000   1.0000
     1.0000   1.0000   1.0000   1.0000   1.0000   1.0000   1.0000   1.0000
     1.0000   1.0000   1.0000   1.0000   1.0000   1.0000   1.0000   1.0000
     1.0000   1.0000   1.0000   1.0000   1.0000   1.0000   1.0000   1.0000
     1.0000   1.0000   1.0000   1.0000   1.0000   1.0000   1.0000   1.0000
     1.0000   1.0000   1.0000   1.0000   1.0000   1.0000   1.0000   1.0000
     1.0000   1.0000   1.0000   1.0000   1.0000   1.0000   1.0000   1.0000
     1.0000   1.0000   1.0000   1.0000   1.0000   1.0000   1.0000   1.0000
     1.0000   1.0000   1.0000   1.0000   1.0000   1.0000   1.0000   1.0000
     1.0000   1.0000   1.0000   1.0000   1.0000   1.0000   1.0000   1.0000
     1.0000   1.0000   1.0000   1.0000   1.0000   1.0000   1.0000   1.0000
     1.0000   1.0000   1.0000   1.0000   1.0000   1.0000   1.0000   1.0000
     1.0000   1.0000   1.0000   1.0000   1.0000   1.0000   1.0000   1.0000
     1.0000   1.0000   1.0000   1.0000   1.0000   1.0000   1.0000   1.0000
     1.0000   1.0000   1.0000   1.0000   1.0000   1.0000   1.0000   1.0000
     1.0000   1.0000   1.0000   1.0000   1.0000   1.0000   1.0000   1.0000
     1.0000   1.0000   1.0000   1.0000   1.0000   1.0000   1.0000   1.0000
     1.0000   1.0000   1.0000   1.0000   1.0000   1.0000   1.0000   1.0000
     1.0000   1.0000   1.0000   1.0000   1.0000   1.0000   1.0000   1.0000
     1.0000   1.0000   1.0000   1.0000   1.0000   1.0000   1.0000   1.0000
     1.0000   1.0000   1.0000   1.0000   1.0000   1.0000   1.0000   1.0000
     1.0000   1.0000   1.0000   1.0000   1.0000   1.0000   1.0000   1.0000
     1.0000   1.0000   1.0000   1.0000   1.0000   1.0000   1.0000   1.0000
     1.0000   1.0000   1.0000   1.0000   1.0000   1.0000   1.0000   1.0000
     1.0000   1.0000   1.0000   1.0000   1.0000   1.0000   1.0000   1.0000
     1.0000   1.0000   1.0000   1.0000   1.0000   1.0000   1.0000   1.0000
     1.0000   1.0000   1.0000   1.0000   1.0000   1.0000   1.0000   1.0000
     1.0000   1.0000   1.0000   1.0000   1.0000   1.0000   1.0000   1.0000
     1.0000   1.0000   1.0000   1.0000   1.0000   1.0000   1.0000   1.0000
     1.0000   1.0000   1.0000   1.0000   1.0000   1.0000   1.0000   1.0000
     1.0000   1.0000   1.0000   1.0000   1.0000   1.0000   1.0000   1.0000
     1.0000   1.0000   1.0000   1.0000   1.0000   1.0000   1.0000   1.0000
     1.0000   1.0000   1.0000   1.0000   1.0000   1.0000   1.0000   1.0000
     1.0000   1.0000   1.0000   1.0000   1.0000   1.0000   1.0000   1.0000
     1.0000   1.0000   1.0000   1.0000   1.0000   1.0000   1.0000   1.0000
     1.0000   1.0000   1.0000   1.0000   1.0000   1.0000   1.0000   1.0000
     1.0000   1.0000   1.0000   1.0000   1.0000   1.0000   1.0000   1.0000
     1.0000   1.0000   1.0000   1.0000   1.0000   1.0000   1.0000   1.0000
     1.0000   1.0000   1.0000   1.0000   1.0000   1.0000   1.0000   1.0000
     1.0000   1.0000   1.0000   1.0000   1.0000   1.0000   1.0000   1.0000
     1.0000   1.0000   1.0000   1.0000   1.0000   1.0000   1.0000   1.0000
     1.0153   1.0153   1.0344   1.0343  -0.0036  -0.0000  -0.0000  -0.0000
    -0.0000  -0.0000  -0.0000  -0.0000  -0.0000  -0.0000  -0.0000  -0.0000
    -0.0000  -0.0000  -0.0000  -0.0000  -0.0000  -0.0000  -0.0000  -0.0000
    -0.0000  -0.0000  -0.0000  -0.0000  -0.0000  -0.0000  -0.0000  -0.0000
    -0.0000  -0.0000  -0.0000  -0.0000  -0.0000  -0.0000  -0.0000  -0.0000
    -0.0000  -0.0000  -0.0000  -0.0000  -0.0000  -0.0000  -0.0000  -0.0000
    -0.0000  -0.0000  -0.0000  -0.0000  -0.0000  -0.0000  -0.0000  -0.0000
    -0.0000  -0.0000  -0.0000  -0.0000  -0.0000  -0.0000  -0.0000  -0.0000
    -0.0000  -0.0000  -0.0000  -0.0000  -0.0000  -0.0000  -0.0000  -0.0000
    -0.0000  -0.0000  -0.0000  -0.0000  -0.0000  -0.0000  -0.0000  -0.0000
    -0.0000  -0.0000  -0.0000  -0.0000  -0.0000  -0.0000  -0.0000  -0.0000
    -0.0000  -0.0000  -0.0000  -0.0000  -0.0000  -0.0000  -0.0000  -0.0000
    -0.0000  -0.0000  -0.0000  -0.0000  -0.0000  -0.0000  -0.0000  -0.0000
    -0.0000  -0.0000  -0.0000  -0.0000  -0.0000  -0.0000  -0.0000  -0.0000

          k =-0.5000-0.2887 0.0000 (554524 PWs)   bands (ev):

   -68.2851 -68.2849 -68.2848 -68.2848 -68.2846 -68.2846 -68.2846 -68.2846
   -68.2846 -68.2846 -68.2846 -68.2846 -68.2846 -68.2845 -68.2844 -68.2844
   -68.2842 -68.2841 -67.7467 -67.7456 -67.7455 -67.7452 -67.7448 -67.7447
   -67.7446 -67.7445 -67.7444 -67.7444 -67.7444 -67.7443 -67.7442 -67.7442
   -67.7441 -67.7441 -67.7440 -67.7440 -67.7439 -67.7439 -67.7438 -67.7438
   -67.7438 -67.7437 -67.7436 -67.7436 -67.7435 -67.7435 -67.7434 -67.7433
   -67.7433 -67.7431 -67.7428 -67.7424 -67.7423 -67.7412 -35.6961 -35.6960
   -35.6959 -35.6959 -35.6957 -35.6957 -35.6957 -35.6957 -35.6956 -35.6956
   -35.6956 -35.6956 -35.6956 -35.6956 -35.6954 -35.6954 -35.6953 -35.6952
   -35.6912 -35.6912 -35.6911 -35.6911 -35.6910 -35.6910 -35.6910 -35.6909
   -35.6908 -35.6908 -35.6908 -35.6908 -35.6908 -35.6908 -35.6907 -35.6907
   -35.6907 -35.6907 -35.6907 -35.6907 -35.6907 -35.6907 -35.6907 -35.6907
   -35.6907 -35.6907 -35.6906 -35.6906 -35.6905 -35.6905 -35.6905 -35.6905
   -35.6904 -35.6903 -35.6903 -35.6902 -35.1792 -35.1789 -35.1784 -35.1783
   -35.1782 -35.1781 -35.1779 -35.1778 -35.1778 -35.1776 -35.1775 -35.1774
   -35.1774 -35.1774 -35.1774 -35.1773 -35.1773 -35.1773 -35.1771 -35.1771
   -35.1771 -35.1771 -35.1771 -35.1770 -35.1770 -35.1770 -35.1768 -35.1767
   -35.1767 -35.1766 -35.1765 -35.1765 -35.1764 -35.1764 -35.1763 -35.1763
   -35.1763 -35.1763 -35.1761 -35.1761 -35.1757 -35.1756 -35.1756 -35.1755
   -35.1754 -35.1753 -35.1752 -35.1751 -35.1751 -35.1748 -35.1745 -35.1744
   -35.1740 -35.1736 -35.1721 -35.1715 -35.1713 -35.1712 -35.1710 -35.1710
   -35.1709 -35.1708 -35.1707 -35.1706 -35.1706 -35.1705 -35.1704 -35.1703
   -35.1703 -35.1702 -35.1701 -35.1700 -35.1699 -35.1698 -35.1697 -35.1697
   -35.1696 -35.1694 -35.1694 -35.1693 -35.1693 -35.1692 -35.1691 -35.1691
   -35.1690 -35.1689 -35.1688 -35.1687 -35.1685 -35.1685 -35.1684 -35.1684
   -35.1683 -35.1683 -35.1682 -35.1682 -35.1682 -35.1681 -35.1681 -35.1680
   -35.1679 -35.1678 -35.1677 -35.1677 -35.1673 -35.1672 -35.1669 -35.1663
   -14.2179 -14.2170 -14.2167 -14.2162 -14.2158 -14.2157 -14.2153 -14.2152
   -14.2150 -14.2149 -14.2146 -14.2145 -14.2144 -14.2144 -14.2144 -14.2139
   -14.2136 -14.2129 -14.2124 -14.2117 -14.2115 -14.2113 -14.2112 -14.2110
   -14.2108 -14.2107 -14.2105 -14.2104 -14.2103 -14.2103 -14.2102 -14.2100
   -14.2100 -14.2099 -14.2098 -14.2096 -14.2091 -14.2091 -14.2087 -14.2083
   -14.2083 -14.2082 -14.2080 -14.2080 -14.2079 -14.2078 -14.2078 -14.2077
   -14.2077 -14.2076 -14.2075 -14.2074 -14.2072 -14.2072 -14.2070 -14.2070
   -14.2068 -14.2067 -14.2066 -14.2060 -14.2059 -14.2056 -14.2051 -14.2051
   -14.2047 -14.2045 -14.2040 -14.2038 -14.2036 -14.2031 -14.2027 -14.2021
   -14.1900 -14.1883 -14.1882 -14.1879 -14.1877 -14.1874 -14.1874 -14.1870
   -14.1867 -14.1865 -14.1864 -14.1864 -14.1863 -14.1862 -14.1859 -14.1857
   -14.1856 -14.1854 -14.1854 -14.1854 -14.1853 -14.1848 -14.1844 -14.1844
   -14.1842 -14.1840 -14.1831 -14.1830 -14.1830 -14.1830 -14.1828 -14.1828
   -14.1827 -14.1823 -14.1820 -14.1808 -14.1745 -14.1741 -14.1734 -14.1734
   -14.1732 -14.1732 -14.1730 -14.1728 -14.1725 -14.1725 -14.1722 -14.1720
   -14.1717 -14.1717 -14.1715 -14.1715 -14.1711 -14.1710 -14.1708 -14.1708
   -14.1705 -14.1705 -14.1702 -14.1699 -14.1696 -14.1689 -14.1678 -14.1674
   -14.1673 -14.1672 -14.1671 -14.1668 -14.1667 -14.1666 -14.1665 -14.1662
   -14.1661 -14.1652 -14.1641 -14.1640 -14.1639 -14.1638 -14.1638 -14.1637
   -14.1634 -14.1633 -14.1620 -14.1620 -14.1619 -14.1615 -14.1609 -14.1608
   -14.1605 -14.1602 -14.1596 -14.1589 -14.1588 -14.1586 -14.1586 -14.1583
   -14.1582 -14.1581 -14.1580 -14.1579 -14.1577 -14.1576 -14.1571 -14.1570
   -14.1568 -14.1565 -14.1564 -14.1554  -3.5720  -3.5710  -3.3140  -3.3131
    -3.2956  -3.2953  -3.0766  -3.0763  -3.0226  -3.0218  -2.9089  -2.9086
    -2.9081  -2.9078  -2.8852  -2.8455  -2.8453  -2.7805  -2.7802  -2.7796
    -2.7793  -2.7650  -2.6758  -2.6694  -2.6690  -2.6686  -2.6682  -2.6657
    -2.6649  -2.5710  -2.5708  -2.5653  -2.5450  -2.5447  -2.5443  -2.5439
     2.9703   3.2046   3.2193   3.2202   3.2807   3.2810   3.2812   3.2814
     3.3888   3.5016   3.5018   3.5020   3.5021   3.5751   3.5754   3.5757
     3.5760   3.6927   3.6930   3.9518   3.9519   4.0314   4.0314   4.1589
     4.2805   4.2806   4.2810   4.2812   4.3690   4.3698   4.5499   4.5501
     4.5621   4.5624   4.5628   4.5631   4.6068   4.6074   4.6301   4.6303
     4.6855   4.9400   4.9406   4.9407   4.9413   5.0604   5.0606   5.0607
     5.0609   5.4197   5.4197   5.4966   5.4969   5.4972   5.4975   5.7071
     5.7995   5.8027   5.8028   6.0079   6.0080   6.0583   6.0584   6.0638
     6.0639   6.1147   6.1151   6.1153   6.1157   6.1338   6.1581   6.3349
     6.3351   6.3445   6.3450   6.3451   6.3456   6.4669   6.4670   6.4697
     6.4701   6.4894   6.4895   6.5017   6.5176   6.5191   6.5271   6.7379
     6.7381   6.7381   6.7382   6.8686   6.8690   6.8691   6.8694   6.9059
     6.9073   6.9245   6.9245   7.1513   7.1524   7.1858   7.1859   7.2639
     7.7351   7.7368   7.8216   7.8225   8.2803   8.4091   8.8504   8.8506
     8.8509   8.8510   9.0688   9.1753   9.1754   9.1756   9.1757   9.3653
     9.3664   9.5383   9.5391   9.6127   9.6129   9.6133   9.6135   9.6179
     9.6182   9.6217   9.6217   9.6280   9.6281   9.6653   9.7029  10.0577
    10.0591  10.0629  10.0631  10.0632  10.0634  10.2339  10.2490  10.4488
    10.4490  10.5445  10.5446  10.6257  10.6258  10.7826  10.7829  10.7899
    10.7903  10.7903  10.7906  10.8399  10.8401  10.8499  10.8696  10.8697
    10.9331  10.9331  10.9332  10.9333  11.0547  11.0550  11.0958  11.0958
    11.0960  11.0961  11.2566  11.2567  11.2787  11.2791  11.2792  11.2796
    11.3080  11.3081  11.3278  11.3281  11.3753  11.3755  11.4342  11.4348
    11.4970  11.4979  11.6019  11.6020  11.7057  11.7057  11.8302  11.8305
    11.8306  11.8310  11.9046  11.9057  12.0284  12.0287  12.0290  12.0293
    12.1192  12.1195  12.3007  12.3010  12.3510  12.3512  12.3532  12.3532
    12.4857  12.4859  12.5635  12.5637  12.5725  12.6900  12.6903  12.8097

     occupation numbers 
     1.0000   1.0000   1.0000   1.0000   1.0000   1.0000   1.0000   1.0000
     1.0000   1.0000   1.0000   1.0000   1.0000   1.0000   1.0000   1.0000
     1.0000   1.0000   1.0000   1.0000   1.0000   1.0000   1.0000   1.0000
     1.0000   1.0000   1.0000   1.0000   1.0000   1.0000   1.0000   1.0000
     1.0000   1.0000   1.0000   1.0000   1.0000   1.0000   1.0000   1.0000
     1.0000   1.0000   1.0000   1.0000   1.0000   1.0000   1.0000   1.0000
     1.0000   1.0000   1.0000   1.0000   1.0000   1.0000   1.0000   1.0000
     1.0000   1.0000   1.0000   1.0000   1.0000   1.0000   1.0000   1.0000
     1.0000   1.0000   1.0000   1.0000   1.0000   1.0000   1.0000   1.0000
     1.0000   1.0000   1.0000   1.0000   1.0000   1.0000   1.0000   1.0000
     1.0000   1.0000   1.0000   1.0000   1.0000   1.0000   1.0000   1.0000
     1.0000   1.0000   1.0000   1.0000   1.0000   1.0000   1.0000   1.0000
     1.0000   1.0000   1.0000   1.0000   1.0000   1.0000   1.0000   1.0000
     1.0000   1.0000   1.0000   1.0000   1.0000   1.0000   1.0000   1.0000
     1.0000   1.0000   1.0000   1.0000   1.0000   1.0000   1.0000   1.0000
     1.0000   1.0000   1.0000   1.0000   1.0000   1.0000   1.0000   1.0000
     1.0000   1.0000   1.0000   1.0000   1.0000   1.0000   1.0000   1.0000
     1.0000   1.0000   1.0000   1.0000   1.0000   1.0000   1.0000   1.0000
     1.0000   1.0000   1.0000   1.0000   1.0000   1.0000   1.0000   1.0000
     1.0000   1.0000   1.0000   1.0000   1.0000   1.0000   1.0000   1.0000
     1.0000   1.0000   1.0000   1.0000   1.0000   1.0000   1.0000   1.0000
     1.0000   1.0000   1.0000   1.0000   1.0000   1.0000   1.0000   1.0000
     1.0000   1.0000   1.0000   1.0000   1.0000   1.0000   1.0000   1.0000
     1.0000   1.0000   1.0000   1.0000   1.0000   1.0000   1.0000   1.0000
     1.0000   1.0000   1.0000   1.0000   1.0000   1.0000   1.0000   1.0000
     1.0000   1.0000   1.0000   1.0000   1.0000   1.0000   1.0000   1.0000
     1.0000   1.0000   1.0000   1.0000   1.0000   1.0000   1.0000   1.0000
     1.0000   1.0000   1.0000   1.0000   1.0000   1.0000   1.0000   1.0000
     1.0000   1.0000   1.0000   1.0000   1.0000   1.0000   1.0000   1.0000
     1.0000   1.0000   1.0000   1.0000   1.0000   1.0000   1.0000   1.0000
     1.0000   1.0000   1.0000   1.0000   1.0000   1.0000   1.0000   1.0000
     1.0000   1.0000   1.0000   1.0000   1.0000   1.0000   1.0000   1.0000
     1.0000   1.0000   1.0000   1.0000   1.0000   1.0000   1.0000   1.0000
     1.0000   1.0000   1.0000   1.0000   1.0000   1.0000   1.0000   1.0000
     1.0000   1.0000   1.0000   1.0000   1.0000   1.0000   1.0000   1.0000
     1.0000   1.0000   1.0000   1.0000   1.0000   1.0000   1.0000   1.0000
     1.0000   1.0000   1.0000   1.0000   1.0000   1.0000   1.0000   1.0000
     1.0000   1.0000   1.0000   1.0000   1.0000   1.0000   1.0000   1.0000
     1.0000   1.0000   1.0000   1.0000   1.0000   1.0000   1.0000   1.0000
     1.0000   1.0000   1.0000   1.0000   1.0000   1.0000   1.0000   1.0000
     1.0000   1.0000   1.0000   1.0000   1.0000   1.0000   1.0000   1.0000
     1.0000   1.0000   1.0000   1.0000   1.0000   1.0000   1.0000   1.0000
     1.0000   1.0000   1.0000   1.0000   1.0000   1.0000   1.0000   1.0000
     1.0000   1.0000   1.0000   1.0000   1.0000   1.0000   1.0000   1.0000
     1.0000   1.0000   1.0000   1.0000   1.0000   1.0000   1.0000   1.0000
     1.0000   1.0000   1.0000   1.0000   1.0000   1.0000   1.0000   1.0000
     1.0000   1.0000   1.0000   1.0000   1.0000   1.0000   1.0000   1.0000
     1.0000   1.0000   1.0000   1.0000   1.0000   1.0000   1.0000   1.0000
     1.0000   1.0000   1.0000   1.0000   1.0000   1.0000   1.0000   1.0000
     1.0000   1.0000   1.0000   1.0000   1.0000   1.0000   1.0000   1.0000
     1.0000   1.0000   1.0000   1.0000   1.0000   1.0000   1.0000   1.0000
     1.0000   1.0000   1.0000   1.0000   1.0000   1.0000   1.0000   1.0000
     1.0000   1.0000   1.0000   1.0000   1.0000   1.0000   1.0000   1.0000
     1.0000   1.0000   1.0000   1.0000   1.0000   1.0000   1.0000   1.0000
     1.0000   1.0000   1.0000   1.0000   1.0000   1.0000   1.0000   1.0000
     1.0000   1.0000   1.0000   1.0000   1.0000   1.0000   1.0000   1.0000
     1.0000   1.0000   1.0000   1.0000   1.0000   1.0000   1.0000   1.0000
     1.0000   1.0000   1.0000   1.0000   1.0000   1.0000   1.0000   1.0000
     1.0000   1.0000   1.0000   1.0000   1.0000   1.0000   1.0000   1.0000
     1.0000   1.0000   1.0000   1.0000   1.0000   1.0000   1.0000   1.0000
     1.0000   1.0000   1.0000   1.0000   1.0000   1.0000   1.0000   1.0000
     1.0000   1.0000   1.0000   1.0000   1.0000   1.0000   1.0000   1.0000
     1.0000   1.0000   1.0000   1.0000   1.0000   1.0000   1.0000   1.0000
     1.0000   1.0000   1.0000   1.0000   1.0000   1.0000   1.0000   1.0000
     1.0000   1.0000   1.0000   1.0000   1.0000   1.0000   1.0000   1.0000
     1.0000   1.0000   1.0000   1.0000   1.0000   1.0000   1.0000   1.0000
     1.0000   1.0000   1.0000   1.0000   1.0000   1.0000   1.0000   1.0000
     1.0150   1.0155   1.0345   1.0343  -0.0036  -0.0000  -0.0000  -0.0000
    -0.0000  -0.0000  -0.0000  -0.0000  -0.0000  -0.0000  -0.0000  -0.0000
    -0.0000  -0.0000  -0.0000  -0.0000  -0.0000  -0.0000  -0.0000  -0.0000
    -0.0000  -0.0000  -0.0000  -0.0000  -0.0000  -0.0000  -0.0000  -0.0000
    -0.0000  -0.0000  -0.0000  -0.0000  -0.0000  -0.0000  -0.0000  -0.0000
    -0.0000  -0.0000  -0.0000  -0.0000  -0.0000  -0.0000  -0.0000  -0.0000
    -0.0000  -0.0000  -0.0000  -0.0000  -0.0000  -0.0000  -0.0000  -0.0000
    -0.0000  -0.0000  -0.0000  -0.0000  -0.0000  -0.0000  -0.0000  -0.0000
    -0.0000  -0.0000  -0.0000  -0.0000  -0.0000  -0.0000  -0.0000  -0.0000
    -0.0000  -0.0000  -0.0000  -0.0000  -0.0000  -0.0000  -0.0000  -0.0000
    -0.0000  -0.0000  -0.0000  -0.0000  -0.0000  -0.0000  -0.0000  -0.0000
    -0.0000  -0.0000  -0.0000  -0.0000  -0.0000  -0.0000  -0.0000  -0.0000
    -0.0000  -0.0000  -0.0000  -0.0000  -0.0000  -0.0000  -0.0000  -0.0000
    -0.0000  -0.0000  -0.0000  -0.0000  -0.0000  -0.0000  -0.0000  -0.0000

          k = 0.5000-0.2887 0.2373 (554574 PWs)   bands (ev):

   -68.2851 -68.2849 -68.2848 -68.2848 -68.2846 -68.2846 -68.2846 -68.2846
   -68.2846 -68.2846 -68.2846 -68.2846 -68.2846 -68.2845 -68.2844 -68.2844
   -68.2842 -68.2841 -67.7467 -67.7456 -67.7455 -67.7452 -67.7448 -67.7446
   -67.7446 -67.7445 -67.7444 -67.7444 -67.7443 -67.7443 -67.7442 -67.7441
   -67.7441 -67.7441 -67.7441 -67.7440 -67.7439 -67.7438 -67.7438 -67.7438
   -67.7438 -67.7437 -67.7436 -67.7436 -67.7435 -67.7435 -67.7434 -67.7433
   -67.7433 -67.7431 -67.7428 -67.7424 -67.7423 -67.7412 -35.6961 -35.6960
   -35.6959 -35.6959 -35.6957 -35.6957 -35.6957 -35.6957 -35.6956 -35.6956
   -35.6956 -35.6956 -35.6956 -35.6956 -35.6954 -35.6954 -35.6953 -35.6952
   -35.6912 -35.6912 -35.6911 -35.6911 -35.6910 -35.6910 -35.6910 -35.6909
   -35.6908 -35.6908 -35.6908 -35.6908 -35.6908 -35.6908 -35.6907 -35.6907
   -35.6907 -35.6907 -35.6907 -35.6907 -35.6907 -35.6907 -35.6907 -35.6907
   -35.6907 -35.6907 -35.6906 -35.6906 -35.6905 -35.6905 -35.6905 -35.6905
   -35.6904 -35.6903 -35.6903 -35.6902 -35.1792 -35.1789 -35.1785 -35.1784
   -35.1782 -35.1781 -35.1780 -35.1778 -35.1777 -35.1776 -35.1775 -35.1775
   -35.1774 -35.1774 -35.1774 -35.1773 -35.1772 -35.1772 -35.1772 -35.1771
   -35.1771 -35.1771 -35.1770 -35.1770 -35.1769 -35.1769 -35.1769 -35.1768
   -35.1768 -35.1766 -35.1766 -35.1765 -35.1765 -35.1764 -35.1764 -35.1763
   -35.1762 -35.1761 -35.1761 -35.1760 -35.1757 -35.1757 -35.1756 -35.1756
   -35.1755 -35.1753 -35.1751 -35.1750 -35.1749 -35.1749 -35.1746 -35.1745
   -35.1738 -35.1736 -35.1719 -35.1716 -35.1715 -35.1712 -35.1712 -35.1709
   -35.1708 -35.1707 -35.1706 -35.1706 -35.1705 -35.1705 -35.1704 -35.1703
   -35.1703 -35.1702 -35.1702 -35.1700 -35.1700 -35.1699 -35.1699 -35.1698
   -35.1696 -35.1696 -35.1694 -35.1693 -35.1692 -35.1691 -35.1690 -35.1689
   -35.1689 -35.1688 -35.1688 -35.1687 -35.1686 -35.1685 -35.1685 -35.1684
   -35.1683 -35.1683 -35.1682 -35.1682 -35.1682 -35.1682 -35.1681 -35.1680
   -35.1680 -35.1678 -35.1677 -35.1676 -35.1673 -35.1672 -35.1670 -35.1663
   -14.2179 -14.2169 -14.2167 -14.2163 -14.2157 -14.2155 -14.2153 -14.2153
   -14.2151 -14.2149 -14.2146 -14.2146 -14.2145 -14.2144 -14.2142 -14.2139
   -14.2136 -14.2131 -14.2121 -14.2118 -14.2115 -14.2113 -14.2110 -14.2109
   -14.2108 -14.2106 -14.2105 -14.2103 -14.2103 -14.2102 -14.2101 -14.2100
   -14.2098 -14.2098 -14.2096 -14.2093 -14.2091 -14.2088 -14.2087 -14.2086
   -14.2085 -14.2084 -14.2082 -14.2082 -14.2081 -14.2080 -14.2079 -14.2079
   -14.2078 -14.2078 -14.2077 -14.2074 -14.2073 -14.2072 -14.2071 -14.2069
   -14.2068 -14.2065 -14.2063 -14.2060 -14.2057 -14.2054 -14.2051 -14.2048
   -14.2045 -14.2043 -14.2040 -14.2038 -14.2037 -14.2033 -14.2025 -14.2024
   -14.1899 -14.1885 -14.1881 -14.1880 -14.1877 -14.1874 -14.1872 -14.1869
   -14.1868 -14.1866 -14.1866 -14.1863 -14.1862 -14.1861 -14.1859 -14.1857
   -14.1856 -14.1856 -14.1854 -14.1854 -14.1853 -14.1851 -14.1844 -14.1844
   -14.1842 -14.1841 -14.1832 -14.1830 -14.1830 -14.1829 -14.1828 -14.1827
   -14.1824 -14.1823 -14.1820 -14.1808 -14.1744 -14.1741 -14.1735 -14.1734
   -14.1733 -14.1732 -14.1731 -14.1730 -14.1723 -14.1723 -14.1719 -14.1719
   -14.1718 -14.1716 -14.1714 -14.1713 -14.1711 -14.1709 -14.1709 -14.1707
   -14.1707 -14.1705 -14.1704 -14.1701 -14.1697 -14.1692 -14.1680 -14.1674
   -14.1672 -14.1670 -14.1669 -14.1668 -14.1668 -14.1666 -14.1665 -14.1662
   -14.1659 -14.1652 -14.1643 -14.1641 -14.1639 -14.1639 -14.1636 -14.1635
   -14.1633 -14.1630 -14.1621 -14.1620 -14.1620 -14.1617 -14.1610 -14.1608
   -14.1605 -14.1603 -14.1592 -14.1589 -14.1588 -14.1586 -14.1585 -14.1584
   -14.1581 -14.1580 -14.1579 -14.1578 -14.1577 -14.1576 -14.1573 -14.1571
   -14.1568 -14.1565 -14.1562 -14.1557  -3.5473  -3.5467  -3.3785  -3.3777
    -3.2746  -3.2743  -3.1311  -3.1309  -2.9442  -2.9432  -2.8965  -2.8963
    -2.8950  -2.8947  -2.8735  -2.8131  -2.8129  -2.8098  -2.8096  -2.7952
    -2.7829  -2.7827  -2.7053  -2.7045  -2.6469  -2.6399  -2.6397  -2.6361
    -2.6359  -2.6002  -2.6000  -2.5756  -2.5577  -2.5575  -2.5556  -2.5554
     2.9834   3.1462   3.2637   3.2638   3.3102   3.3224   3.3297   3.3298
     3.4258   3.4259   3.4785   3.4786   3.4849   3.6192   3.6194   3.6901
     3.6904   3.6918   3.6919   3.8175   3.8175   3.9695   4.0123   4.0131
     4.0704   4.0706   4.1146   4.1147   4.2046   4.2047   4.5110   4.5112
     4.6860   4.6861   4.7781   4.7782   4.8195   4.8196   4.8393   4.8694
     4.8696   4.8782   4.8782   4.9401   5.0464   5.0538   5.0540   5.1605
     5.1607   5.4186   5.4680   5.6245   5.6246   5.6341   5.6342   5.6748
     5.6749   5.7439   5.7579   5.7873   5.7874   5.9129   5.9131   5.9463
     5.9665   5.9830   6.0131   6.0332   6.0915   6.1841   6.1842   6.1978
     6.1978   6.2005   6.2007   6.2035   6.2036   6.3699   6.3700   6.3799
     6.3800   6.3897   6.3898   6.5379   6.5647   6.6647   6.7353   6.7592
     6.8096   6.8300   6.8330   6.8330   6.9131   7.0382   7.0384   7.0882
     7.0884   7.0916   7.0918   7.1695   7.2371   7.3057   7.3058   7.3443
     7.6372   7.6663   7.7073   7.7147   8.1103   8.2614   8.8837   8.8837
     8.9537   8.9537   9.0144   9.0144   9.1440   9.2012   9.2600   9.2601
     9.3138   9.3346   9.4985   9.4985   9.5049   9.6494   9.6632   9.6632
     9.6828   9.7317   9.7390   9.7390   9.9951  10.0622  10.1005  10.1006
    10.1214  10.1215  10.1240  10.1931  10.1932  10.2728  10.2729  10.4619
    10.4621  10.4829  10.4830  10.5848  10.5850  10.6291  10.6292  10.6365
    10.6377  10.6480  10.6481  10.7243  10.7243  10.7557  10.7560  10.7572
    10.7572  10.8788  10.8826  10.9122  10.9124  11.0195  11.0219  11.0220
    11.0300  11.0467  11.0946  11.1421  11.1421  11.2231  11.3119  11.3538
    11.3539  11.3668  11.4251  11.4562  11.4563  11.4572  11.4573  11.4934
    11.4935  11.5195  11.5591  11.5592  11.5866  11.6682  11.7477  11.7848
    11.7936  11.9811  11.9971  12.0199  12.0200  12.1003  12.2393  12.2393
    12.2957  12.2971  12.2971  12.3263  12.3264  12.3475  12.3475  12.3721
    12.3722  12.3902  12.4336  12.5251  12.5307  12.5863  12.6540  12.7083

     occupation numbers 
     1.0000   1.0000   1.0000   1.0000   1.0000   1.0000   1.0000   1.0000
     1.0000   1.0000   1.0000   1.0000   1.0000   1.0000   1.0000   1.0000
     1.0000   1.0000   1.0000   1.0000   1.0000   1.0000   1.0000   1.0000
     1.0000   1.0000   1.0000   1.0000   1.0000   1.0000   1.0000   1.0000
     1.0000   1.0000   1.0000   1.0000   1.0000   1.0000   1.0000   1.0000
     1.0000   1.0000   1.0000   1.0000   1.0000   1.0000   1.0000   1.0000
     1.0000   1.0000   1.0000   1.0000   1.0000   1.0000   1.0000   1.0000
     1.0000   1.0000   1.0000   1.0000   1.0000   1.0000   1.0000   1.0000
     1.0000   1.0000   1.0000   1.0000   1.0000   1.0000   1.0000   1.0000
     1.0000   1.0000   1.0000   1.0000   1.0000   1.0000   1.0000   1.0000
     1.0000   1.0000   1.0000   1.0000   1.0000   1.0000   1.0000   1.0000
     1.0000   1.0000   1.0000   1.0000   1.0000   1.0000   1.0000   1.0000
     1.0000   1.0000   1.0000   1.0000   1.0000   1.0000   1.0000   1.0000
     1.0000   1.0000   1.0000   1.0000   1.0000   1.0000   1.0000   1.0000
     1.0000   1.0000   1.0000   1.0000   1.0000   1.0000   1.0000   1.0000
     1.0000   1.0000   1.0000   1.0000   1.0000   1.0000   1.0000   1.0000
     1.0000   1.0000   1.0000   1.0000   1.0000   1.0000   1.0000   1.0000
     1.0000   1.0000   1.0000   1.0000   1.0000   1.0000   1.0000   1.0000
     1.0000   1.0000   1.0000   1.0000   1.0000   1.0000   1.0000   1.0000
     1.0000   1.0000   1.0000   1.0000   1.0000   1.0000   1.0000   1.0000
     1.0000   1.0000   1.0000   1.0000   1.0000   1.0000   1.0000   1.0000
     1.0000   1.0000   1.0000   1.0000   1.0000   1.0000   1.0000   1.0000
     1.0000   1.0000   1.0000   1.0000   1.0000   1.0000   1.0000   1.0000
     1.0000   1.0000   1.0000   1.0000   1.0000   1.0000   1.0000   1.0000
     1.0000   1.0000   1.0000   1.0000   1.0000   1.0000   1.0000   1.0000
     1.0000   1.0000   1.0000   1.0000   1.0000   1.0000   1.0000   1.0000
     1.0000   1.0000   1.0000   1.0000   1.0000   1.0000   1.0000   1.0000
     1.0000   1.0000   1.0000   1.0000   1.0000   1.0000   1.0000   1.0000
     1.0000   1.0000   1.0000   1.0000   1.0000   1.0000   1.0000   1.0000
     1.0000   1.0000   1.0000   1.0000   1.0000   1.0000   1.0000   1.0000
     1.0000   1.0000   1.0000   1.0000   1.0000   1.0000   1.0000   1.0000
     1.0000   1.0000   1.0000   1.0000   1.0000   1.0000   1.0000   1.0000
     1.0000   1.0000   1.0000   1.0000   1.0000   1.0000   1.0000   1.0000
     1.0000   1.0000   1.0000   1.0000   1.0000   1.0000   1.0000   1.0000
     1.0000   1.0000   1.0000   1.0000   1.0000   1.0000   1.0000   1.0000
     1.0000   1.0000   1.0000   1.0000   1.0000   1.0000   1.0000   1.0000
     1.0000   1.0000   1.0000   1.0000   1.0000   1.0000   1.0000   1.0000
     1.0000   1.0000   1.0000   1.0000   1.0000   1.0000   1.0000   1.0000
     1.0000   1.0000   1.0000   1.0000   1.0000   1.0000   1.0000   1.0000
     1.0000   1.0000   1.0000   1.0000   1.0000   1.0000   1.0000   1.0000
     1.0000   1.0000   1.0000   1.0000   1.0000   1.0000   1.0000   1.0000
     1.0000   1.0000   1.0000   1.0000   1.0000   1.0000   1.0000   1.0000
     1.0000   1.0000   1.0000   1.0000   1.0000   1.0000   1.0000   1.0000
     1.0000   1.0000   1.0000   1.0000   1.0000   1.0000   1.0000   1.0000
     1.0000   1.0000   1.0000   1.0000   1.0000   1.0000   1.0000   1.0000
     1.0000   1.0000   1.0000   1.0000   1.0000   1.0000   1.0000   1.0000
     1.0000   1.0000   1.0000   1.0000   1.0000   1.0000   1.0000   1.0000
     1.0000   1.0000   1.0000   1.0000   1.0000   1.0000   1.0000   1.0000
     1.0000   1.0000   1.0000   1.0000   1.0000   1.0000   1.0000   1.0000
     1.0000   1.0000   1.0000   1.0000   1.0000   1.0000   1.0000   1.0000
     1.0000   1.0000   1.0000   1.0000   1.0000   1.0000   1.0000   1.0000
     1.0000   1.0000   1.0000   1.0000   1.0000   1.0000   1.0000   1.0000
     1.0000   1.0000   1.0000   1.0000   1.0000   1.0000   1.0000   1.0000
     1.0000   1.0000   1.0000   1.0000   1.0000   1.0000   1.0000   1.0000
     1.0000   1.0000   1.0000   1.0000   1.0000   1.0000   1.0000   1.0000
     1.0000   1.0000   1.0000   1.0000   1.0000   1.0000   1.0000   1.0000
     1.0000   1.0000   1.0000   1.0000   1.0000   1.0000   1.0000   1.0000
     1.0000   1.0000   1.0000   1.0000   1.0000   1.0000   1.0000   1.0000
     1.0000   1.0000   1.0000   1.0000   1.0000   1.0000   1.0000   1.0000
     1.0000   1.0000   1.0000   1.0000   1.0000   1.0000   1.0000   1.0000
     1.0000   1.0000   1.0000   1.0000   1.0000   1.0000   1.0000   1.0000
     1.0000   1.0000   1.0000   1.0000   1.0000   1.0000   1.0000   1.0000
     1.0000   1.0000   1.0000   1.0000   1.0000   1.0000   1.0000   1.0000
     1.0000   1.0000   1.0000   1.0000   1.0000   1.0000   1.0000   1.0000
     1.0000   1.0000   1.0000   1.0000   1.0000   1.0000   1.0000   1.0000
     1.0000   1.0000   1.0000   1.0000   1.0000   1.0000   1.0000   1.0000
     1.0000   1.0000   1.0000   1.0000   1.0000   1.0000   1.0000   1.0000
     1.0011   1.0028   1.0083   1.0098  -0.0221  -0.0060  -0.0000  -0.0000
    -0.0000  -0.0000  -0.0000  -0.0000  -0.0000  -0.0000  -0.0000  -0.0000
    -0.0000  -0.0000  -0.0000  -0.0000  -0.0000  -0.0000  -0.0000  -0.0000
    -0.0000  -0.0000  -0.0000  -0.0000  -0.0000  -0.0000  -0.0000  -0.0000
    -0.0000  -0.0000  -0.0000  -0.0000  -0.0000  -0.0000  -0.0000  -0.0000
    -0.0000  -0.0000  -0.0000  -0.0000  -0.0000  -0.0000  -0.0000  -0.0000
    -0.0000  -0.0000  -0.0000  -0.0000  -0.0000  -0.0000  -0.0000  -0.0000
    -0.0000  -0.0000  -0.0000  -0.0000  -0.0000  -0.0000  -0.0000  -0.0000
    -0.0000  -0.0000  -0.0000  -0.0000  -0.0000  -0.0000  -0.0000  -0.0000
    -0.0000  -0.0000  -0.0000  -0.0000  -0.0000  -0.0000  -0.0000  -0.0000
    -0.0000  -0.0000  -0.0000  -0.0000  -0.0000  -0.0000  -0.0000  -0.0000
    -0.0000  -0.0000  -0.0000  -0.0000  -0.0000  -0.0000  -0.0000  -0.0000
    -0.0000  -0.0000  -0.0000  -0.0000  -0.0000  -0.0000  -0.0000  -0.0000
    -0.0000  -0.0000  -0.0000  -0.0000  -0.0000  -0.0000  -0.0000  -0.0000

          k =-0.5000-0.2887 0.2373 (554574 PWs)   bands (ev):

   -68.2851 -68.2849 -68.2848 -68.2848 -68.2846 -68.2846 -68.2846 -68.2846
   -68.2846 -68.2846 -68.2846 -68.2846 -68.2846 -68.2845 -68.2844 -68.2844
   -68.2842 -68.2841 -67.7467 -67.7456 -67.7455 -67.7452 -67.7448 -67.7447
   -67.7446 -67.7445 -67.7444 -67.7444 -67.7444 -67.7443 -67.7442 -67.7442
   -67.7441 -67.7441 -67.7440 -67.7440 -67.7439 -67.7439 -67.7438 -67.7438
   -67.7438 -67.7437 -67.7436 -67.7436 -67.7435 -67.7435 -67.7434 -67.7433
   -67.7433 -67.7431 -67.7428 -67.7424 -67.7423 -67.7412 -35.6961 -35.6960
   -35.6959 -35.6959 -35.6957 -35.6957 -35.6957 -35.6957 -35.6956 -35.6956
   -35.6956 -35.6956 -35.6956 -35.6956 -35.6954 -35.6954 -35.6953 -35.6952
   -35.6912 -35.6912 -35.6911 -35.6911 -35.6910 -35.6910 -35.6910 -35.6909
   -35.6908 -35.6908 -35.6908 -35.6908 -35.6908 -35.6908 -35.6907 -35.6907
   -35.6907 -35.6907 -35.6907 -35.6907 -35.6907 -35.6907 -35.6907 -35.6907
   -35.6907 -35.6907 -35.6906 -35.6906 -35.6905 -35.6905 -35.6905 -35.6905
   -35.6904 -35.6903 -35.6903 -35.6902 -35.1792 -35.1789 -35.1784 -35.1783
   -35.1782 -35.1781 -35.1779 -35.1778 -35.1778 -35.1776 -35.1775 -35.1774
   -35.1774 -35.1774 -35.1774 -35.1773 -35.1773 -35.1773 -35.1771 -35.1771
   -35.1771 -35.1771 -35.1771 -35.1770 -35.1770 -35.1770 -35.1768 -35.1767
   -35.1767 -35.1766 -35.1765 -35.1765 -35.1764 -35.1764 -35.1763 -35.1763
   -35.1763 -35.1763 -35.1761 -35.1761 -35.1757 -35.1756 -35.1756 -35.1755
   -35.1754 -35.1753 -35.1752 -35.1751 -35.1751 -35.1748 -35.1745 -35.1744
   -35.1740 -35.1736 -35.1721 -35.1715 -35.1713 -35.1712 -35.1710 -35.1710
   -35.1709 -35.1708 -35.1707 -35.1706 -35.1706 -35.1705 -35.1704 -35.1703
   -35.1703 -35.1702 -35.1701 -35.1700 -35.1699 -35.1698 -35.1697 -35.1697
   -35.1696 -35.1694 -35.1694 -35.1693 -35.1693 -35.1692 -35.1691 -35.1691
   -35.1690 -35.1689 -35.1688 -35.1687 -35.1685 -35.1685 -35.1684 -35.1684
   -35.1683 -35.1683 -35.1682 -35.1682 -35.1682 -35.1681 -35.1681 -35.1680
   -35.1679 -35.1678 -35.1677 -35.1677 -35.1673 -35.1672 -35.1669 -35.1663
   -14.2178 -14.2170 -14.2168 -14.2161 -14.2157 -14.2156 -14.2153 -14.2153
   -14.2150 -14.2149 -14.2146 -14.2146 -14.2145 -14.2144 -14.2144 -14.2139
   -14.2136 -14.2128 -14.2124 -14.2117 -14.2116 -14.2112 -14.2111 -14.2110
   -14.2107 -14.2106 -14.2105 -14.2104 -14.2103 -14.2103 -14.2102 -14.2099
   -14.2099 -14.2098 -14.2097 -14.2096 -14.2092 -14.2089 -14.2087 -14.2084
   -14.2083 -14.2083 -14.2081 -14.2081 -14.2080 -14.2080 -14.2080 -14.2078
   -14.2078 -14.2077 -14.2076 -14.2075 -14.2073 -14.2072 -14.2071 -14.2070
   -14.2067 -14.2066 -14.2064 -14.2060 -14.2059 -14.2056 -14.2049 -14.2049
   -14.2044 -14.2044 -14.2039 -14.2039 -14.2037 -14.2032 -14.2028 -14.2022
   -14.1900 -14.1883 -14.1881 -14.1880 -14.1877 -14.1874 -14.1873 -14.1869
   -14.1867 -14.1865 -14.1865 -14.1864 -14.1863 -14.1861 -14.1859 -14.1858
   -14.1857 -14.1856 -14.1855 -14.1854 -14.1853 -14.1848 -14.1844 -14.1844
   -14.1842 -14.1840 -14.1830 -14.1830 -14.1830 -14.1829 -14.1828 -14.1827
   -14.1827 -14.1823 -14.1820 -14.1808 -14.1745 -14.1741 -14.1735 -14.1734
   -14.1731 -14.1731 -14.1729 -14.1728 -14.1725 -14.1724 -14.1721 -14.1720
   -14.1718 -14.1718 -14.1714 -14.1714 -14.1711 -14.1711 -14.1708 -14.1707
   -14.1706 -14.1706 -14.1703 -14.1700 -14.1695 -14.1690 -14.1678 -14.1674
   -14.1673 -14.1670 -14.1670 -14.1668 -14.1668 -14.1666 -14.1664 -14.1664
   -14.1659 -14.1651 -14.1642 -14.1641 -14.1640 -14.1640 -14.1636 -14.1636
   -14.1633 -14.1633 -14.1620 -14.1620 -14.1619 -14.1615 -14.1609 -14.1608
   -14.1604 -14.1601 -14.1596 -14.1590 -14.1587 -14.1585 -14.1584 -14.1583
   -14.1581 -14.1580 -14.1579 -14.1578 -14.1577 -14.1576 -14.1573 -14.1571
   -14.1568 -14.1565 -14.1565 -14.1555  -3.5475  -3.5465  -3.3787  -3.3775
    -3.2746  -3.2743  -3.1311  -3.1309  -2.9443  -2.9431  -2.8967  -2.8964
    -2.8949  -2.8946  -2.8735  -2.8132  -2.8129  -2.8098  -2.8096  -2.7952
    -2.7829  -2.7827  -2.7054  -2.7044  -2.6469  -2.6399  -2.6397  -2.6361
    -2.6359  -2.6002  -2.6000  -2.5756  -2.5578  -2.5575  -2.5555  -2.5553
     2.9834   3.1462   3.2637   3.2638   3.3102   3.3224   3.3297   3.3298
     3.4259   3.4259   3.4785   3.4786   3.4849   3.6192   3.6194   3.6901
     3.6904   3.6918   3.6919   3.8175   3.8175   3.9695   4.0123   4.0131
     4.0704   4.0706   4.1146   4.1147   4.2046   4.2047   4.5110   4.5112
     4.6860   4.6861   4.7781   4.7782   4.8195   4.8196   4.8393   4.8694
     4.8696   4.8782   4.8782   4.9401   5.0464   5.0538   5.0540   5.1605
     5.1607   5.4186   5.4681   5.6245   5.6246   5.6341   5.6342   5.6748
     5.6749   5.7439   5.7579   5.7873   5.7874   5.9129   5.9131   5.9463
     5.9665   5.9830   6.0131   6.0332   6.0915   6.1841   6.1842   6.1978
     6.1978   6.2005   6.2007   6.2035   6.2036   6.3699   6.3700   6.3799
     6.3800   6.3897   6.3897   6.5379   6.5648   6.6647   6.7353   6.7591
     6.8096   6.8300   6.8330   6.8330   6.9131   7.0382   7.0384   7.0882
     7.0883   7.0916   7.0918   7.1695   7.2371   7.3057   7.3058   7.3443
     7.6372   7.6663   7.7073   7.7147   8.1103   8.2614   8.8837   8.8837
     8.9537   8.9537   9.0144   9.0144   9.1440   9.2012   9.2600   9.2601
     9.3138   9.3346   9.4985   9.4985   9.5049   9.6494   9.6632   9.6632
     9.6828   9.7317   9.7390   9.7390   9.9951  10.0622  10.1005  10.1006
    10.1214  10.1215  10.1240  10.1931  10.1932  10.2728  10.2729  10.4619
    10.4621  10.4829  10.4830  10.5848  10.5850  10.6291  10.6292  10.6364
    10.6378  10.6480  10.6481  10.7243  10.7243  10.7558  10.7560  10.7571
    10.7572  10.8788  10.8826  10.9122  10.9124  11.0195  11.0219  11.0220
    11.0300  11.0467  11.0946  11.1421  11.1421  11.2231  11.3119  11.3538
    11.3539  11.3668  11.4251  11.4562  11.4563  11.4572  11.4573  11.4934
    11.4935  11.5195  11.5591  11.5592  11.5866  11.6682  11.7477  11.7848
    11.7936  11.9811  11.9971  12.0199  12.0200  12.1004  12.2393  12.2393
    12.2957  12.2971  12.2972  12.3263  12.3264  12.3475  12.3475  12.3721
    12.3722  12.3902  12.4336  12.5251  12.5307  12.5864  12.6543  12.7084

     occupation numbers 
     1.0000   1.0000   1.0000   1.0000   1.0000   1.0000   1.0000   1.0000
     1.0000   1.0000   1.0000   1.0000   1.0000   1.0000   1.0000   1.0000
     1.0000   1.0000   1.0000   1.0000   1.0000   1.0000   1.0000   1.0000
     1.0000   1.0000   1.0000   1.0000   1.0000   1.0000   1.0000   1.0000
     1.0000   1.0000   1.0000   1.0000   1.0000   1.0000   1.0000   1.0000
     1.0000   1.0000   1.0000   1.0000   1.0000   1.0000   1.0000   1.0000
     1.0000   1.0000   1.0000   1.0000   1.0000   1.0000   1.0000   1.0000
     1.0000   1.0000   1.0000   1.0000   1.0000   1.0000   1.0000   1.0000
     1.0000   1.0000   1.0000   1.0000   1.0000   1.0000   1.0000   1.0000
     1.0000   1.0000   1.0000   1.0000   1.0000   1.0000   1.0000   1.0000
     1.0000   1.0000   1.0000   1.0000   1.0000   1.0000   1.0000   1.0000
     1.0000   1.0000   1.0000   1.0000   1.0000   1.0000   1.0000   1.0000
     1.0000   1.0000   1.0000   1.0000   1.0000   1.0000   1.0000   1.0000
     1.0000   1.0000   1.0000   1.0000   1.0000   1.0000   1.0000   1.0000
     1.0000   1.0000   1.0000   1.0000   1.0000   1.0000   1.0000   1.0000
     1.0000   1.0000   1.0000   1.0000   1.0000   1.0000   1.0000   1.0000
     1.0000   1.0000   1.0000   1.0000   1.0000   1.0000   1.0000   1.0000
     1.0000   1.0000   1.0000   1.0000   1.0000   1.0000   1.0000   1.0000
     1.0000   1.0000   1.0000   1.0000   1.0000   1.0000   1.0000   1.0000
     1.0000   1.0000   1.0000   1.0000   1.0000   1.0000   1.0000   1.0000
     1.0000   1.0000   1.0000   1.0000   1.0000   1.0000   1.0000   1.0000
     1.0000   1.0000   1.0000   1.0000   1.0000   1.0000   1.0000   1.0000
     1.0000   1.0000   1.0000   1.0000   1.0000   1.0000   1.0000   1.0000
     1.0000   1.0000   1.0000   1.0000   1.0000   1.0000   1.0000   1.0000
     1.0000   1.0000   1.0000   1.0000   1.0000   1.0000   1.0000   1.0000
     1.0000   1.0000   1.0000   1.0000   1.0000   1.0000   1.0000   1.0000
     1.0000   1.0000   1.0000   1.0000   1.0000   1.0000   1.0000   1.0000
     1.0000   1.0000   1.0000   1.0000   1.0000   1.0000   1.0000   1.0000
     1.0000   1.0000   1.0000   1.0000   1.0000   1.0000   1.0000   1.0000
     1.0000   1.0000   1.0000   1.0000   1.0000   1.0000   1.0000   1.0000
     1.0000   1.0000   1.0000   1.0000   1.0000   1.0000   1.0000   1.0000
     1.0000   1.0000   1.0000   1.0000   1.0000   1.0000   1.0000   1.0000
     1.0000   1.0000   1.0000   1.0000   1.0000   1.0000   1.0000   1.0000
     1.0000   1.0000   1.0000   1.0000   1.0000   1.0000   1.0000   1.0000
     1.0000   1.0000   1.0000   1.0000   1.0000   1.0000   1.0000   1.0000
     1.0000   1.0000   1.0000   1.0000   1.0000   1.0000   1.0000   1.0000
     1.0000   1.0000   1.0000   1.0000   1.0000   1.0000   1.0000   1.0000
     1.0000   1.0000   1.0000   1.0000   1.0000   1.0000   1.0000   1.0000
     1.0000   1.0000   1.0000   1.0000   1.0000   1.0000   1.0000   1.0000
     1.0000   1.0000   1.0000   1.0000   1.0000   1.0000   1.0000   1.0000
     1.0000   1.0000   1.0000   1.0000   1.0000   1.0000   1.0000   1.0000
     1.0000   1.0000   1.0000   1.0000   1.0000   1.0000   1.0000   1.0000
     1.0000   1.0000   1.0000   1.0000   1.0000   1.0000   1.0000   1.0000
     1.0000   1.0000   1.0000   1.0000   1.0000   1.0000   1.0000   1.0000
     1.0000   1.0000   1.0000   1.0000   1.0000   1.0000   1.0000   1.0000
     1.0000   1.0000   1.0000   1.0000   1.0000   1.0000   1.0000   1.0000
     1.0000   1.0000   1.0000   1.0000   1.0000   1.0000   1.0000   1.0000
     1.0000   1.0000   1.0000   1.0000   1.0000   1.0000   1.0000   1.0000
     1.0000   1.0000   1.0000   1.0000   1.0000   1.0000   1.0000   1.0000
     1.0000   1.0000   1.0000   1.0000   1.0000   1.0000   1.0000   1.0000
     1.0000   1.0000   1.0000   1.0000   1.0000   1.0000   1.0000   1.0000
     1.0000   1.0000   1.0000   1.0000   1.0000   1.0000   1.0000   1.0000
     1.0000   1.0000   1.0000   1.0000   1.0000   1.0000   1.0000   1.0000
     1.0000   1.0000   1.0000   1.0000   1.0000   1.0000   1.0000   1.0000
     1.0000   1.0000   1.0000   1.0000   1.0000   1.0000   1.0000   1.0000
     1.0000   1.0000   1.0000   1.0000   1.0000   1.0000   1.0000   1.0000
     1.0000   1.0000   1.0000   1.0000   1.0000   1.0000   1.0000   1.0000
     1.0000   1.0000   1.0000   1.0000   1.0000   1.0000   1.0000   1.0000
     1.0000   1.0000   1.0000   1.0000   1.0000   1.0000   1.0000   1.0000
     1.0000   1.0000   1.0000   1.0000   1.0000   1.0000   1.0000   1.0000
     1.0000   1.0000   1.0000   1.0000   1.0000   1.0000   1.0000   1.0000
     1.0000   1.0000   1.0000   1.0000   1.0000   1.0000   1.0000   1.0000
     1.0000   1.0000   1.0000   1.0000   1.0000   1.0000   1.0000   1.0000
     1.0000   1.0000   1.0000   1.0000   1.0000   1.0000   1.0000   1.0000
     1.0000   1.0000   1.0000   1.0000   1.0000   1.0000   1.0000   1.0000
     1.0000   1.0000   1.0000   1.0000   1.0000   1.0000   1.0000   1.0000
     1.0000   1.0000   1.0000   1.0000   1.0000   1.0000   1.0000   1.0000
     1.0011   1.0028   1.0083   1.0098  -0.0221  -0.0060  -0.0000  -0.0000
    -0.0000  -0.0000  -0.0000  -0.0000  -0.0000  -0.0000  -0.0000  -0.0000
    -0.0000  -0.0000  -0.0000  -0.0000  -0.0000  -0.0000  -0.0000  -0.0000
    -0.0000  -0.0000  -0.0000  -0.0000  -0.0000  -0.0000  -0.0000  -0.0000
    -0.0000  -0.0000  -0.0000  -0.0000  -0.0000  -0.0000  -0.0000  -0.0000
    -0.0000  -0.0000  -0.0000  -0.0000  -0.0000  -0.0000  -0.0000  -0.0000
    -0.0000  -0.0000  -0.0000  -0.0000  -0.0000  -0.0000  -0.0000  -0.0000
    -0.0000  -0.0000  -0.0000  -0.0000  -0.0000  -0.0000  -0.0000  -0.0000
    -0.0000  -0.0000  -0.0000  -0.0000  -0.0000  -0.0000  -0.0000  -0.0000
    -0.0000  -0.0000  -0.0000  -0.0000  -0.0000  -0.0000  -0.0000  -0.0000
    -0.0000  -0.0000  -0.0000  -0.0000  -0.0000  -0.0000  -0.0000  -0.0000
    -0.0000  -0.0000  -0.0000  -0.0000  -0.0000  -0.0000  -0.0000  -0.0000
    -0.0000  -0.0000  -0.0000  -0.0000  -0.0000  -0.0000  -0.0000  -0.0000
    -0.0000  -0.0000  -0.0000  -0.0000  -0.0000  -0.0000  -0.0000  -0.0000

          k = 0.5000-0.2887-0.4746 (554528 PWs)   bands (ev):

   -68.2851 -68.2849 -68.2848 -68.2848 -68.2846 -68.2846 -68.2846 -68.2846
   -68.2846 -68.2846 -68.2846 -68.2846 -68.2846 -68.2845 -68.2844 -68.2844
   -68.2842 -68.2841 -67.7467 -67.7456 -67.7455 -67.7452 -67.7448 -67.7446
   -67.7446 -67.7445 -67.7444 -67.7444 -67.7443 -67.7443 -67.7442 -67.7441
   -67.7441 -67.7441 -67.7441 -67.7440 -67.7439 -67.7438 -67.7438 -67.7438
   -67.7438 -67.7437 -67.7436 -67.7436 -67.7435 -67.7435 -67.7434 -67.7433
   -67.7433 -67.7431 -67.7428 -67.7424 -67.7423 -67.7412 -35.6961 -35.6960
   -35.6959 -35.6959 -35.6957 -35.6957 -35.6957 -35.6957 -35.6956 -35.6956
   -35.6956 -35.6956 -35.6956 -35.6956 -35.6954 -35.6954 -35.6953 -35.6952
   -35.6912 -35.6912 -35.6911 -35.6911 -35.6910 -35.6910 -35.6910 -35.6909
   -35.6908 -35.6908 -35.6908 -35.6908 -35.6908 -35.6908 -35.6907 -35.6907
   -35.6907 -35.6907 -35.6907 -35.6907 -35.6907 -35.6907 -35.6907 -35.6907
   -35.6907 -35.6907 -35.6906 -35.6906 -35.6905 -35.6905 -35.6905 -35.6905
   -35.6904 -35.6903 -35.6903 -35.6902 -35.1792 -35.1789 -35.1785 -35.1784
   -35.1782 -35.1781 -35.1780 -35.1778 -35.1777 -35.1776 -35.1775 -35.1775
   -35.1774 -35.1774 -35.1774 -35.1773 -35.1772 -35.1772 -35.1772 -35.1771
   -35.1771 -35.1771 -35.1770 -35.1770 -35.1769 -35.1769 -35.1769 -35.1768
   -35.1768 -35.1766 -35.1766 -35.1765 -35.1765 -35.1764 -35.1764 -35.1763
   -35.1762 -35.1761 -35.1761 -35.1760 -35.1757 -35.1757 -35.1756 -35.1756
   -35.1755 -35.1753 -35.1751 -35.1750 -35.1749 -35.1749 -35.1746 -35.1745
   -35.1738 -35.1736 -35.1719 -35.1716 -35.1715 -35.1712 -35.1712 -35.1709
   -35.1708 -35.1707 -35.1706 -35.1706 -35.1705 -35.1705 -35.1704 -35.1703
   -35.1703 -35.1702 -35.1702 -35.1700 -35.1700 -35.1699 -35.1699 -35.1698
   -35.1696 -35.1696 -35.1694 -35.1693 -35.1692 -35.1691 -35.1690 -35.1689
   -35.1689 -35.1688 -35.1688 -35.1687 -35.1686 -35.1685 -35.1685 -35.1684
   -35.1683 -35.1683 -35.1682 -35.1682 -35.1682 -35.1682 -35.1681 -35.1680
   -35.1680 -35.1678 -35.1677 -35.1676 -35.1673 -35.1672 -35.1670 -35.1663
   -14.2178 -14.2170 -14.2167 -14.2163 -14.2156 -14.2155 -14.2154 -14.2152
   -14.2152 -14.2150 -14.2147 -14.2146 -14.2145 -14.2145 -14.2143 -14.2141
   -14.2134 -14.2132 -14.2122 -14.2119 -14.2115 -14.2113 -14.2109 -14.2108
   -14.2106 -14.2106 -14.2105 -14.2103 -14.2103 -14.2102 -14.2099 -14.2099
   -14.2098 -14.2097 -14.2096 -14.2094 -14.2091 -14.2089 -14.2088 -14.2086
   -14.2084 -14.2084 -14.2082 -14.2082 -14.2081 -14.2081 -14.2080 -14.2080
   -14.2080 -14.2079 -14.2079 -14.2078 -14.2075 -14.2073 -14.2072 -14.2069
   -14.2067 -14.2066 -14.2063 -14.2059 -14.2057 -14.2053 -14.2046 -14.2045
   -14.2044 -14.2043 -14.2041 -14.2039 -14.2036 -14.2034 -14.2026 -14.2025
   -14.1899 -14.1885 -14.1881 -14.1881 -14.1876 -14.1873 -14.1871 -14.1870
   -14.1869 -14.1868 -14.1865 -14.1861 -14.1861 -14.1860 -14.1859 -14.1858
   -14.1857 -14.1857 -14.1855 -14.1854 -14.1853 -14.1851 -14.1844 -14.1843
   -14.1842 -14.1841 -14.1832 -14.1830 -14.1830 -14.1828 -14.1828 -14.1827
   -14.1824 -14.1822 -14.1821 -14.1808 -14.1744 -14.1741 -14.1736 -14.1735
   -14.1732 -14.1732 -14.1731 -14.1730 -14.1722 -14.1722 -14.1721 -14.1720
   -14.1716 -14.1714 -14.1712 -14.1712 -14.1711 -14.1711 -14.1710 -14.1709
   -14.1706 -14.1706 -14.1706 -14.1702 -14.1695 -14.1694 -14.1680 -14.1673
   -14.1672 -14.1671 -14.1671 -14.1668 -14.1667 -14.1665 -14.1665 -14.1663
   -14.1658 -14.1651 -14.1644 -14.1642 -14.1641 -14.1640 -14.1636 -14.1634
   -14.1633 -14.1629 -14.1621 -14.1620 -14.1620 -14.1618 -14.1611 -14.1608
   -14.1605 -14.1602 -14.1591 -14.1590 -14.1587 -14.1585 -14.1583 -14.1581
   -14.1581 -14.1581 -14.1578 -14.1577 -14.1576 -14.1575 -14.1574 -14.1574
   -14.1568 -14.1564 -14.1563 -14.1559  -3.4779  -3.4774  -3.4769  -3.4765
    -3.2154  -3.2151  -3.2147  -3.2144  -2.8620  -2.8618  -2.8615  -2.8613
    -2.8590  -2.8587  -2.8587  -2.8584  -2.8410  -2.8403  -2.8109  -2.8107
    -2.8098  -2.8094  -2.6799  -2.6796  -2.6792  -2.6789  -2.6053  -2.6046
    -2.5926  -2.5924  -2.5923  -2.5920  -2.5890  -2.5889  -2.5885  -2.5883
     3.0442   3.0447   3.3184   3.3187   3.3190   3.3193   3.3962   3.3965
     3.3969   3.3972   3.5757   3.5760   3.6019   3.6022   3.7187   3.7191
     3.7192   3.7196   3.7256   3.7259   3.8097   3.8101   3.8104   3.8108
     3.8949   3.8952   3.8954   3.8957   4.3935   4.3937   4.3942   4.3944
     4.7769   4.7771   4.7772   4.7773   4.8175   4.8177   4.8177   4.8178
     5.1585   5.1586   5.1590   5.1591   5.2396   5.2403   5.3063   5.3064
     5.4482   5.4487   5.5438   5.5439   5.5443   5.5444   5.5495   5.5497
     5.5498   5.5500   5.7816   5.7822   5.7907   5.7910   5.7915   5.7918
     5.8509   5.8517   5.8987   5.8989   5.9368   5.9370   5.9371   5.9373
     5.9588   5.9589   5.9590   5.9592   6.5061   6.5063   6.6133   6.6135
     6.6142   6.6145   6.6212   6.6214   6.6737   6.6740   6.7991   6.7993
     6.7994   6.7997   6.8194   6.8196   6.8196   6.8198   6.9365   6.9373
     7.2860   7.2865   7.3788   7.3788   7.3807   7.3811   7.3812   7.3815
     7.4507   7.4507   7.5590   7.5593   8.1259   8.1259   9.0313   9.0314
     9.0314   9.0316   9.0732   9.0743   9.1607   9.1608   9.2619   9.2621
     9.2622   9.2624   9.4777   9.4777   9.4779   9.4779   9.5654   9.5654
     9.9642   9.9646  10.0611  10.0612  10.1397  10.1400  10.1401  10.1405
    10.1756  10.1757  10.1758  10.1759  10.2082  10.2083  10.2086  10.2087
    10.2802  10.2804  10.2807  10.2808  10.4242  10.4244  10.4246  10.4247
    10.6650  10.6652  10.6652  10.6654  10.6859  10.6864  10.7728  10.7730
    10.9392  10.9393  10.9394  10.9395  11.1131  11.1132  11.1260  11.1263
    11.1267  11.1270  11.1980  11.1984  11.2370  11.2375  11.3356  11.3358
    11.4377  11.4385  11.4686  11.4688  11.4690  11.4692  11.4742  11.4751
    11.4789  11.4789  11.4793  11.4794  11.6200  11.6202  11.7424  11.7425
    11.7739  11.7745  11.8556  11.8557  11.8559  11.8560  12.0506  12.0507
    12.0575  12.0578  12.0580  12.0584  12.1870  12.1871  12.1874  12.1875
    12.4680  12.4680  12.6122  12.6124  12.7251  12.7255  12.7423  12.7427

     occupation numbers 
     1.0000   1.0000   1.0000   1.0000   1.0000   1.0000   1.0000   1.0000
     1.0000   1.0000   1.0000   1.0000   1.0000   1.0000   1.0000   1.0000
     1.0000   1.0000   1.0000   1.0000   1.0000   1.0000   1.0000   1.0000
     1.0000   1.0000   1.0000   1.0000   1.0000   1.0000   1.0000   1.0000
     1.0000   1.0000   1.0000   1.0000   1.0000   1.0000   1.0000   1.0000
     1.0000   1.0000   1.0000   1.0000   1.0000   1.0000   1.0000   1.0000
     1.0000   1.0000   1.0000   1.0000   1.0000   1.0000   1.0000   1.0000
     1.0000   1.0000   1.0000   1.0000   1.0000   1.0000   1.0000   1.0000
     1.0000   1.0000   1.0000   1.0000   1.0000   1.0000   1.0000   1.0000
     1.0000   1.0000   1.0000   1.0000   1.0000   1.0000   1.0000   1.0000
     1.0000   1.0000   1.0000   1.0000   1.0000   1.0000   1.0000   1.0000
     1.0000   1.0000   1.0000   1.0000   1.0000   1.0000   1.0000   1.0000
     1.0000   1.0000   1.0000   1.0000   1.0000   1.0000   1.0000   1.0000
     1.0000   1.0000   1.0000   1.0000   1.0000   1.0000   1.0000   1.0000
     1.0000   1.0000   1.0000   1.0000   1.0000   1.0000   1.0000   1.0000
     1.0000   1.0000   1.0000   1.0000   1.0000   1.0000   1.0000   1.0000
     1.0000   1.0000   1.0000   1.0000   1.0000   1.0000   1.0000   1.0000
     1.0000   1.0000   1.0000   1.0000   1.0000   1.0000   1.0000   1.0000
     1.0000   1.0000   1.0000   1.0000   1.0000   1.0000   1.0000   1.0000
     1.0000   1.0000   1.0000   1.0000   1.0000   1.0000   1.0000   1.0000
     1.0000   1.0000   1.0000   1.0000   1.0000   1.0000   1.0000   1.0000
     1.0000   1.0000   1.0000   1.0000   1.0000   1.0000   1.0000   1.0000
     1.0000   1.0000   1.0000   1.0000   1.0000   1.0000   1.0000   1.0000
     1.0000   1.0000   1.0000   1.0000   1.0000   1.0000   1.0000   1.0000
     1.0000   1.0000   1.0000   1.0000   1.0000   1.0000   1.0000   1.0000
     1.0000   1.0000   1.0000   1.0000   1.0000   1.0000   1.0000   1.0000
     1.0000   1.0000   1.0000   1.0000   1.0000   1.0000   1.0000   1.0000
     1.0000   1.0000   1.0000   1.0000   1.0000   1.0000   1.0000   1.0000
     1.0000   1.0000   1.0000   1.0000   1.0000   1.0000   1.0000   1.0000
     1.0000   1.0000   1.0000   1.0000   1.0000   1.0000   1.0000   1.0000
     1.0000   1.0000   1.0000   1.0000   1.0000   1.0000   1.0000   1.0000
     1.0000   1.0000   1.0000   1.0000   1.0000   1.0000   1.0000   1.0000
     1.0000   1.0000   1.0000   1.0000   1.0000   1.0000   1.0000   1.0000
     1.0000   1.0000   1.0000   1.0000   1.0000   1.0000   1.0000   1.0000
     1.0000   1.0000   1.0000   1.0000   1.0000   1.0000   1.0000   1.0000
     1.0000   1.0000   1.0000   1.0000   1.0000   1.0000   1.0000   1.0000
     1.0000   1.0000   1.0000   1.0000   1.0000   1.0000   1.0000   1.0000
     1.0000   1.0000   1.0000   1.0000   1.0000   1.0000   1.0000   1.0000
     1.0000   1.0000   1.0000   1.0000   1.0000   1.0000   1.0000   1.0000
     1.0000   1.0000   1.0000   1.0000   1.0000   1.0000   1.0000   1.0000
     1.0000   1.0000   1.0000   1.0000   1.0000   1.0000   1.0000   1.0000
     1.0000   1.0000   1.0000   1.0000   1.0000   1.0000   1.0000   1.0000
     1.0000   1.0000   1.0000   1.0000   1.0000   1.0000   1.0000   1.0000
     1.0000   1.0000   1.0000   1.0000   1.0000   1.0000   1.0000   1.0000
     1.0000   1.0000   1.0000   1.0000   1.0000   1.0000   1.0000   1.0000
     1.0000   1.0000   1.0000   1.0000   1.0000   1.0000   1.0000   1.0000
     1.0000   1.0000   1.0000   1.0000   1.0000   1.0000   1.0000   1.0000
     1.0000   1.0000   1.0000   1.0000   1.0000   1.0000   1.0000   1.0000
     1.0000   1.0000   1.0000   1.0000   1.0000   1.0000   1.0000   1.0000
     1.0000   1.0000   1.0000   1.0000   1.0000   1.0000   1.0000   1.0000
     1.0000   1.0000   1.0000   1.0000   1.0000   1.0000   1.0000   1.0000
     1.0000   1.0000   1.0000   1.0000   1.0000   1.0000   1.0000   1.0000
     1.0000   1.0000   1.0000   1.0000   1.0000   1.0000   1.0000   1.0000
     1.0000   1.0000   1.0000   1.0000   1.0000   1.0000   1.0000   1.0000
     1.0000   1.0000   1.0000   1.0000   1.0000   1.0000   1.0000   1.0000
     1.0000   1.0000   1.0000   1.0000   1.0000   1.0000   1.0000   1.0000
     1.0000   1.0000   1.0000   1.0000   1.0000   1.0000   1.0000   1.0000
     1.0000   1.0000   1.0000   1.0000   1.0000   1.0000   1.0000   1.0000
     1.0000   1.0000   1.0000   1.0000   1.0000   1.0000   1.0000   1.0000
     1.0000   1.0000   1.0000   1.0000   1.0000   1.0000   1.0000   1.0000
     1.0000   1.0000   1.0000   1.0000   1.0000   1.0000   1.0000   1.0000
     1.0000   1.0000   1.0000   1.0000   1.0000   1.0000   1.0000   1.0000
     1.0000   1.0000   1.0000   1.0000   1.0000   1.0000   1.0000   1.0000
     1.0000   1.0000   1.0000   1.0000   1.0000   1.0000   1.0000   1.0000
     1.0000   1.0000   1.0000   1.0000   1.0000   1.0000   1.0000   1.0000
     1.0000   1.0000   1.0000   1.0000   1.0000   1.0000   1.0000   1.0000
     1.0000   1.0000   1.0000   1.0000   1.0000   1.0000   1.0000   1.0000
     1.0000   1.0000   1.0001   1.0001  -0.0320  -0.0320  -0.0000  -0.0000
    -0.0000  -0.0000  -0.0000  -0.0000  -0.0000  -0.0000  -0.0000  -0.0000
    -0.0000  -0.0000  -0.0000  -0.0000  -0.0000  -0.0000  -0.0000  -0.0000
    -0.0000  -0.0000  -0.0000  -0.0000  -0.0000  -0.0000  -0.0000  -0.0000
    -0.0000  -0.0000  -0.0000  -0.0000  -0.0000  -0.0000  -0.0000  -0.0000
    -0.0000  -0.0000  -0.0000  -0.0000  -0.0000  -0.0000  -0.0000  -0.0000
    -0.0000  -0.0000  -0.0000  -0.0000  -0.0000  -0.0000  -0.0000  -0.0000
    -0.0000  -0.0000  -0.0000  -0.0000  -0.0000  -0.0000  -0.0000  -0.0000
    -0.0000  -0.0000  -0.0000  -0.0000  -0.0000  -0.0000  -0.0000  -0.0000
    -0.0000  -0.0000  -0.0000  -0.0000  -0.0000  -0.0000  -0.0000  -0.0000
    -0.0000  -0.0000  -0.0000  -0.0000  -0.0000  -0.0000  -0.0000  -0.0000
    -0.0000  -0.0000  -0.0000  -0.0000  -0.0000  -0.0000  -0.0000  -0.0000
    -0.0000  -0.0000  -0.0000  -0.0000  -0.0000  -0.0000  -0.0000  -0.0000
    -0.0000  -0.0000  -0.0000  -0.0000  -0.0000  -0.0000  -0.0000  -0.0000

          k =-0.5000-0.2887-0.4746 (554528 PWs)   bands (ev):

   -68.2851 -68.2849 -68.2848 -68.2848 -68.2846 -68.2846 -68.2846 -68.2846
   -68.2846 -68.2846 -68.2846 -68.2846 -68.2846 -68.2845 -68.2844 -68.2844
   -68.2842 -68.2841 -67.7467 -67.7456 -67.7455 -67.7452 -67.7448 -67.7447
   -67.7446 -67.7445 -67.7444 -67.7444 -67.7444 -67.7443 -67.7442 -67.7442
   -67.7441 -67.7441 -67.7440 -67.7440 -67.7439 -67.7439 -67.7438 -67.7438
   -67.7438 -67.7437 -67.7436 -67.7436 -67.7435 -67.7435 -67.7434 -67.7433
   -67.7433 -67.7431 -67.7428 -67.7424 -67.7423 -67.7412 -35.6961 -35.6960
   -35.6959 -35.6959 -35.6957 -35.6957 -35.6957 -35.6957 -35.6956 -35.6956
   -35.6956 -35.6956 -35.6956 -35.6956 -35.6954 -35.6954 -35.6953 -35.6952
   -35.6912 -35.6912 -35.6911 -35.6911 -35.6910 -35.6910 -35.6910 -35.6909
   -35.6908 -35.6908 -35.6908 -35.6908 -35.6908 -35.6908 -35.6907 -35.6907
   -35.6907 -35.6907 -35.6907 -35.6907 -35.6907 -35.6907 -35.6907 -35.6907
   -35.6907 -35.6907 -35.6906 -35.6906 -35.6905 -35.6905 -35.6905 -35.6905
   -35.6904 -35.6903 -35.6903 -35.6902 -35.1792 -35.1789 -35.1784 -35.1783
   -35.1782 -35.1781 -35.1779 -35.1778 -35.1778 -35.1776 -35.1775 -35.1774
   -35.1774 -35.1774 -35.1774 -35.1773 -35.1773 -35.1773 -35.1771 -35.1771
   -35.1771 -35.1771 -35.1771 -35.1770 -35.1770 -35.1770 -35.1768 -35.1767
   -35.1767 -35.1766 -35.1765 -35.1765 -35.1764 -35.1764 -35.1763 -35.1763
   -35.1763 -35.1763 -35.1761 -35.1761 -35.1757 -35.1756 -35.1756 -35.1755
   -35.1754 -35.1753 -35.1752 -35.1751 -35.1751 -35.1748 -35.1745 -35.1744
   -35.1740 -35.1736 -35.1721 -35.1715 -35.1713 -35.1712 -35.1710 -35.1710
   -35.1709 -35.1708 -35.1707 -35.1706 -35.1706 -35.1705 -35.1704 -35.1703
   -35.1703 -35.1702 -35.1701 -35.1700 -35.1699 -35.1698 -35.1697 -35.1697
   -35.1696 -35.1694 -35.1694 -35.1693 -35.1693 -35.1692 -35.1691 -35.1691
   -35.1690 -35.1689 -35.1688 -35.1687 -35.1685 -35.1685 -35.1684 -35.1684
   -35.1683 -35.1683 -35.1682 -35.1682 -35.1682 -35.1681 -35.1681 -35.1680
   -35.1679 -35.1678 -35.1677 -35.1677 -35.1673 -35.1672 -35.1669 -35.1663
   -14.2178 -14.2170 -14.2169 -14.2160 -14.2156 -14.2156 -14.2153 -14.2152
   -14.2151 -14.2151 -14.2147 -14.2147 -14.2145 -14.2145 -14.2144 -14.2141
   -14.2133 -14.2129 -14.2125 -14.2118 -14.2115 -14.2110 -14.2109 -14.2108
   -14.2108 -14.2106 -14.2105 -14.2104 -14.2104 -14.2103 -14.2101 -14.2098
   -14.2098 -14.2097 -14.2096 -14.2096 -14.2092 -14.2089 -14.2087 -14.2084
   -14.2083 -14.2083 -14.2082 -14.2082 -14.2081 -14.2081 -14.2080 -14.2080
   -14.2079 -14.2079 -14.2078 -14.2076 -14.2075 -14.2073 -14.2071 -14.2070
   -14.2066 -14.2065 -14.2063 -14.2060 -14.2058 -14.2055 -14.2046 -14.2045
   -14.2044 -14.2043 -14.2040 -14.2040 -14.2035 -14.2034 -14.2029 -14.2023
   -14.1900 -14.1882 -14.1881 -14.1880 -14.1878 -14.1872 -14.1871 -14.1869
   -14.1869 -14.1868 -14.1865 -14.1863 -14.1860 -14.1860 -14.1859 -14.1859
   -14.1858 -14.1857 -14.1857 -14.1855 -14.1853 -14.1848 -14.1844 -14.1843
   -14.1842 -14.1840 -14.1830 -14.1830 -14.1830 -14.1829 -14.1828 -14.1827
   -14.1827 -14.1822 -14.1820 -14.1808 -14.1745 -14.1741 -14.1735 -14.1735
   -14.1731 -14.1731 -14.1729 -14.1727 -14.1725 -14.1724 -14.1721 -14.1720
   -14.1719 -14.1717 -14.1713 -14.1713 -14.1711 -14.1711 -14.1710 -14.1710
   -14.1706 -14.1706 -14.1703 -14.1701 -14.1694 -14.1692 -14.1677 -14.1673
   -14.1673 -14.1671 -14.1671 -14.1668 -14.1667 -14.1666 -14.1665 -14.1664
   -14.1658 -14.1651 -14.1643 -14.1642 -14.1642 -14.1641 -14.1635 -14.1634
   -14.1633 -14.1632 -14.1621 -14.1620 -14.1620 -14.1615 -14.1610 -14.1609
   -14.1603 -14.1601 -14.1596 -14.1590 -14.1587 -14.1583 -14.1582 -14.1582
   -14.1581 -14.1581 -14.1578 -14.1577 -14.1576 -14.1575 -14.1574 -14.1574
   -14.1570 -14.1566 -14.1564 -14.1557  -3.4781  -3.4775  -3.4770  -3.4762
    -3.2154  -3.2151  -3.2147  -3.2144  -2.8624  -2.8619  -2.8614  -2.8612
    -2.8590  -2.8589  -2.8586  -2.8581  -2.8410  -2.8403  -2.8113  -2.8105
    -2.8097  -2.8093  -2.6799  -2.6796  -2.6792  -2.6789  -2.6053  -2.6046
    -2.5929  -2.5924  -2.5922  -2.5920  -2.5892  -2.5889  -2.5885  -2.5879
     3.0444   3.0445   3.3184   3.3187   3.3190   3.3192   3.3963   3.3967
     3.3968   3.3971   3.5758   3.5759   3.6017   3.6025   3.7187   3.7190
     3.7194   3.7196   3.7256   3.7258   3.8098   3.8102   3.8103   3.8107
     3.8950   3.8953   3.8954   3.8957   4.3931   4.3935   4.3943   4.3947
     4.7765   4.7770   4.7772   4.7777   4.8172   4.8176   4.8177   4.8182
     5.1584   5.1585   5.1591   5.1592   5.2398   5.2401   5.3062   5.3065
     5.4483   5.4486   5.5436   5.5440   5.5442   5.5446   5.5493   5.5495
     5.5499   5.5502   5.7817   5.7822   5.7910   5.7911   5.7913   5.7915
     5.8509   5.8517   5.8986   5.8990   5.9367   5.9370   5.9371   5.9373
     5.9585   5.9589   5.9590   5.9595   6.5059   6.5064   6.6135   6.6137
     6.6141   6.6143   6.6207   6.6218   6.6732   6.6745   6.7990   6.7991
     6.7996   6.7997   6.8193   6.8195   6.8197   6.8200   6.9364   6.9374
     7.2860   7.2865   7.3787   7.3790   7.3807   7.3808   7.3813   7.3816
     7.4501   7.4513   7.5587   7.5596   8.1256   8.1262   9.0312   9.0314
     9.0315   9.0316   9.0729   9.0746   9.1604   9.1611   9.2619   9.2621
     9.2622   9.2624   9.4777   9.4777   9.4779   9.4779   9.5650   9.5658
     9.9641   9.9647  10.0610  10.0614  10.1399  10.1401  10.1401  10.1403
    10.1755  10.1756  10.1759  10.1760  10.2080  10.2084  10.2085  10.2089
    10.2804  10.2805  10.2806  10.2806  10.4242  10.4245  10.4245  10.4247
    10.6648  10.6651  10.6652  10.6655  10.6860  10.6863  10.7728  10.7730
    10.9389  10.9393  10.9395  10.9398  11.1129  11.1134  11.1259  11.1263
    11.1267  11.1271  11.1982  11.1982  11.2371  11.2373  11.3356  11.3357
    11.4376  11.4387  11.4683  11.4689  11.4689  11.4694  11.4741  11.4752
    11.4788  11.4790  11.4793  11.4795  11.6199  11.6203  11.7424  11.7425
    11.7742  11.7742  11.8557  11.8557  11.8559  11.8560  12.0506  12.0508
    12.0576  12.0579  12.0579  12.0582  12.1870  12.1872  12.1874  12.1876
    12.4678  12.4682  12.6122  12.6125  12.7251  12.7254  12.7423  12.7426

     occupation numbers 
     1.0000   1.0000   1.0000   1.0000   1.0000   1.0000   1.0000   1.0000
     1.0000   1.0000   1.0000   1.0000   1.0000   1.0000   1.0000   1.0000
     1.0000   1.0000   1.0000   1.0000   1.0000   1.0000   1.0000   1.0000
     1.0000   1.0000   1.0000   1.0000   1.0000   1.0000   1.0000   1.0000
     1.0000   1.0000   1.0000   1.0000   1.0000   1.0000   1.0000   1.0000
     1.0000   1.0000   1.0000   1.0000   1.0000   1.0000   1.0000   1.0000
     1.0000   1.0000   1.0000   1.0000   1.0000   1.0000   1.0000   1.0000
     1.0000   1.0000   1.0000   1.0000   1.0000   1.0000   1.0000   1.0000
     1.0000   1.0000   1.0000   1.0000   1.0000   1.0000   1.0000   1.0000
     1.0000   1.0000   1.0000   1.0000   1.0000   1.0000   1.0000   1.0000
     1.0000   1.0000   1.0000   1.0000   1.0000   1.0000   1.0000   1.0000
     1.0000   1.0000   1.0000   1.0000   1.0000   1.0000   1.0000   1.0000
     1.0000   1.0000   1.0000   1.0000   1.0000   1.0000   1.0000   1.0000
     1.0000   1.0000   1.0000   1.0000   1.0000   1.0000   1.0000   1.0000
     1.0000   1.0000   1.0000   1.0000   1.0000   1.0000   1.0000   1.0000
     1.0000   1.0000   1.0000   1.0000   1.0000   1.0000   1.0000   1.0000
     1.0000   1.0000   1.0000   1.0000   1.0000   1.0000   1.0000   1.0000
     1.0000   1.0000   1.0000   1.0000   1.0000   1.0000   1.0000   1.0000
     1.0000   1.0000   1.0000   1.0000   1.0000   1.0000   1.0000   1.0000
     1.0000   1.0000   1.0000   1.0000   1.0000   1.0000   1.0000   1.0000
     1.0000   1.0000   1.0000   1.0000   1.0000   1.0000   1.0000   1.0000
     1.0000   1.0000   1.0000   1.0000   1.0000   1.0000   1.0000   1.0000
     1.0000   1.0000   1.0000   1.0000   1.0000   1.0000   1.0000   1.0000
     1.0000   1.0000   1.0000   1.0000   1.0000   1.0000   1.0000   1.0000
     1.0000   1.0000   1.0000   1.0000   1.0000   1.0000   1.0000   1.0000
     1.0000   1.0000   1.0000   1.0000   1.0000   1.0000   1.0000   1.0000
     1.0000   1.0000   1.0000   1.0000   1.0000   1.0000   1.0000   1.0000
     1.0000   1.0000   1.0000   1.0000   1.0000   1.0000   1.0000   1.0000
     1.0000   1.0000   1.0000   1.0000   1.0000   1.0000   1.0000   1.0000
     1.0000   1.0000   1.0000   1.0000   1.0000   1.0000   1.0000   1.0000
     1.0000   1.0000   1.0000   1.0000   1.0000   1.0000   1.0000   1.0000
     1.0000   1.0000   1.0000   1.0000   1.0000   1.0000   1.0000   1.0000
     1.0000   1.0000   1.0000   1.0000   1.0000   1.0000   1.0000   1.0000
     1.0000   1.0000   1.0000   1.0000   1.0000   1.0000   1.0000   1.0000
     1.0000   1.0000   1.0000   1.0000   1.0000   1.0000   1.0000   1.0000
     1.0000   1.0000   1.0000   1.0000   1.0000   1.0000   1.0000   1.0000
     1.0000   1.0000   1.0000   1.0000   1.0000   1.0000   1.0000   1.0000
     1.0000   1.0000   1.0000   1.0000   1.0000   1.0000   1.0000   1.0000
     1.0000   1.0000   1.0000   1.0000   1.0000   1.0000   1.0000   1.0000
     1.0000   1.0000   1.0000   1.0000   1.0000   1.0000   1.0000   1.0000
     1.0000   1.0000   1.0000   1.0000   1.0000   1.0000   1.0000   1.0000
     1.0000   1.0000   1.0000   1.0000   1.0000   1.0000   1.0000   1.0000
     1.0000   1.0000   1.0000   1.0000   1.0000   1.0000   1.0000   1.0000
     1.0000   1.0000   1.0000   1.0000   1.0000   1.0000   1.0000   1.0000
     1.0000   1.0000   1.0000   1.0000   1.0000   1.0000   1.0000   1.0000
     1.0000   1.0000   1.0000   1.0000   1.0000   1.0000   1.0000   1.0000
     1.0000   1.0000   1.0000   1.0000   1.0000   1.0000   1.0000   1.0000
     1.0000   1.0000   1.0000   1.0000   1.0000   1.0000   1.0000   1.0000
     1.0000   1.0000   1.0000   1.0000   1.0000   1.0000   1.0000   1.0000
     1.0000   1.0000   1.0000   1.0000   1.0000   1.0000   1.0000   1.0000
     1.0000   1.0000   1.0000   1.0000   1.0000   1.0000   1.0000   1.0000
     1.0000   1.0000   1.0000   1.0000   1.0000   1.0000   1.0000   1.0000
     1.0000   1.0000   1.0000   1.0000   1.0000   1.0000   1.0000   1.0000
     1.0000   1.0000   1.0000   1.0000   1.0000   1.0000   1.0000   1.0000
     1.0000   1.0000   1.0000   1.0000   1.0000   1.0000   1.0000   1.0000
     1.0000   1.0000   1.0000   1.0000   1.0000   1.0000   1.0000   1.0000
     1.0000   1.0000   1.0000   1.0000   1.0000   1.0000   1.0000   1.0000
     1.0000   1.0000   1.0000   1.0000   1.0000   1.0000   1.0000   1.0000
     1.0000   1.0000   1.0000   1.0000   1.0000   1.0000   1.0000   1.0000
     1.0000   1.0000   1.0000   1.0000   1.0000   1.0000   1.0000   1.0000
     1.0000   1.0000   1.0000   1.0000   1.0000   1.0000   1.0000   1.0000
     1.0000   1.0000   1.0000   1.0000   1.0000   1.0000   1.0000   1.0000
     1.0000   1.0000   1.0000   1.0000   1.0000   1.0000   1.0000   1.0000
     1.0000   1.0000   1.0000   1.0000   1.0000   1.0000   1.0000   1.0000
     1.0000   1.0000   1.0000   1.0000   1.0000   1.0000   1.0000   1.0000
     1.0000   1.0000   1.0000   1.0000   1.0000   1.0000   1.0000   1.0000
     1.0000   1.0000   1.0000   1.0000   1.0000   1.0000   1.0000   1.0000
     1.0000   1.0000   1.0001   1.0001  -0.0319  -0.0321  -0.0000  -0.0000
    -0.0000  -0.0000  -0.0000  -0.0000  -0.0000  -0.0000  -0.0000  -0.0000
    -0.0000  -0.0000  -0.0000  -0.0000  -0.0000  -0.0000  -0.0000  -0.0000
    -0.0000  -0.0000  -0.0000  -0.0000  -0.0000  -0.0000  -0.0000  -0.0000
    -0.0000  -0.0000  -0.0000  -0.0000  -0.0000  -0.0000  -0.0000  -0.0000
    -0.0000  -0.0000  -0.0000  -0.0000  -0.0000  -0.0000  -0.0000  -0.0000
    -0.0000  -0.0000  -0.0000  -0.0000  -0.0000  -0.0000  -0.0000  -0.0000
    -0.0000  -0.0000  -0.0000  -0.0000  -0.0000  -0.0000  -0.0000  -0.0000
    -0.0000  -0.0000  -0.0000  -0.0000  -0.0000  -0.0000  -0.0000  -0.0000
    -0.0000  -0.0000  -0.0000  -0.0000  -0.0000  -0.0000  -0.0000  -0.0000
    -0.0000  -0.0000  -0.0000  -0.0000  -0.0000  -0.0000  -0.0000  -0.0000
    -0.0000  -0.0000  -0.0000  -0.0000  -0.0000  -0.0000  -0.0000  -0.0000
    -0.0000  -0.0000  -0.0000  -0.0000  -0.0000  -0.0000  -0.0000  -0.0000
    -0.0000  -0.0000  -0.0000  -0.0000  -0.0000  -0.0000  -0.0000  -0.0000

          k =-0.2500 0.4330 0.0000 (554595 PWs)   bands (ev):

   -68.2851 -68.2849 -68.2848 -68.2848 -68.2846 -68.2846 -68.2846 -68.2846
   -68.2846 -68.2846 -68.2846 -68.2846 -68.2846 -68.2845 -68.2844 -68.2844
   -68.2842 -68.2841 -67.7467 -67.7456 -67.7455 -67.7452 -67.7448 -67.7446
   -67.7446 -67.7445 -67.7444 -67.7444 -67.7443 -67.7443 -67.7442 -67.7441
   -67.7441 -67.7441 -67.7441 -67.7440 -67.7439 -67.7438 -67.7438 -67.7438
   -67.7438 -67.7437 -67.7436 -67.7436 -67.7435 -67.7435 -67.7434 -67.7433
   -67.7433 -67.7431 -67.7428 -67.7424 -67.7423 -67.7412 -35.6961 -35.6960
   -35.6959 -35.6959 -35.6957 -35.6957 -35.6957 -35.6957 -35.6956 -35.6956
   -35.6956 -35.6956 -35.6956 -35.6956 -35.6954 -35.6954 -35.6953 -35.6952
   -35.6912 -35.6912 -35.6911 -35.6911 -35.6910 -35.6910 -35.6910 -35.6909
   -35.6908 -35.6908 -35.6908 -35.6908 -35.6908 -35.6908 -35.6908 -35.6907
   -35.6907 -35.6907 -35.6907 -35.6907 -35.6907 -35.6907 -35.6907 -35.6907
   -35.6907 -35.6907 -35.6906 -35.6906 -35.6905 -35.6905 -35.6905 -35.6905
   -35.6904 -35.6903 -35.6903 -35.6902 -35.1792 -35.1789 -35.1785 -35.1784
   -35.1782 -35.1781 -35.1780 -35.1778 -35.1777 -35.1776 -35.1776 -35.1775
   -35.1774 -35.1774 -35.1774 -35.1773 -35.1773 -35.1772 -35.1772 -35.1771
   -35.1771 -35.1771 -35.1770 -35.1770 -35.1769 -35.1769 -35.1769 -35.1768
   -35.1768 -35.1766 -35.1766 -35.1765 -35.1764 -35.1764 -35.1763 -35.1763
   -35.1762 -35.1761 -35.1760 -35.1760 -35.1759 -35.1757 -35.1757 -35.1754
   -35.1754 -35.1753 -35.1751 -35.1751 -35.1750 -35.1748 -35.1748 -35.1744
   -35.1739 -35.1736 -35.1719 -35.1715 -35.1715 -35.1712 -35.1712 -35.1710
   -35.1708 -35.1707 -35.1706 -35.1705 -35.1705 -35.1705 -35.1704 -35.1703
   -35.1703 -35.1703 -35.1702 -35.1701 -35.1700 -35.1699 -35.1697 -35.1697
   -35.1696 -35.1696 -35.1694 -35.1694 -35.1692 -35.1692 -35.1691 -35.1689
   -35.1689 -35.1688 -35.1687 -35.1687 -35.1686 -35.1685 -35.1685 -35.1684
   -35.1684 -35.1683 -35.1682 -35.1682 -35.1682 -35.1681 -35.1681 -35.1680
   -35.1680 -35.1678 -35.1677 -35.1676 -35.1673 -35.1672 -35.1670 -35.1663
   -14.2177 -14.2172 -14.2167 -14.2163 -14.2161 -14.2158 -14.2152 -14.2152
   -14.2150 -14.2149 -14.2148 -14.2145 -14.2143 -14.2141 -14.2140 -14.2139
   -14.2138 -14.2130 -14.2122 -14.2118 -14.2115 -14.2113 -14.2111 -14.2110
   -14.2110 -14.2109 -14.2107 -14.2105 -14.2104 -14.2103 -14.2102 -14.2101
   -14.2099 -14.2096 -14.2093 -14.2092 -14.2090 -14.2089 -14.2087 -14.2087
   -14.2085 -14.2084 -14.2083 -14.2082 -14.2081 -14.2080 -14.2078 -14.2077
   -14.2076 -14.2075 -14.2074 -14.2074 -14.2073 -14.2072 -14.2071 -14.2070
   -14.2068 -14.2065 -14.2061 -14.2060 -14.2058 -14.2056 -14.2054 -14.2049
   -14.2047 -14.2045 -14.2042 -14.2039 -14.2036 -14.2030 -14.2025 -14.2022
   -14.1899 -14.1886 -14.1881 -14.1879 -14.1876 -14.1875 -14.1874 -14.1871
   -14.1870 -14.1865 -14.1864 -14.1862 -14.1862 -14.1860 -14.1859 -14.1857
   -14.1856 -14.1854 -14.1853 -14.1852 -14.1850 -14.1849 -14.1848 -14.1844
   -14.1840 -14.1837 -14.1835 -14.1834 -14.1834 -14.1830 -14.1826 -14.1825
   -14.1825 -14.1822 -14.1821 -14.1808 -14.1744 -14.1741 -14.1736 -14.1735
   -14.1734 -14.1730 -14.1727 -14.1727 -14.1724 -14.1724 -14.1722 -14.1721
   -14.1721 -14.1720 -14.1716 -14.1714 -14.1712 -14.1710 -14.1709 -14.1706
   -14.1704 -14.1702 -14.1699 -14.1694 -14.1692 -14.1690 -14.1686 -14.1684
   -14.1679 -14.1672 -14.1671 -14.1668 -14.1666 -14.1664 -14.1661 -14.1653
   -14.1651 -14.1651 -14.1650 -14.1648 -14.1645 -14.1642 -14.1632 -14.1630
   -14.1629 -14.1628 -14.1627 -14.1624 -14.1614 -14.1613 -14.1612 -14.1610
   -14.1605 -14.1603 -14.1592 -14.1590 -14.1588 -14.1588 -14.1586 -14.1584
   -14.1583 -14.1581 -14.1580 -14.1577 -14.1576 -14.1575 -14.1573 -14.1571
   -14.1568 -14.1563 -14.1559 -14.1558  -3.6094  -3.4627  -3.4618  -3.3470
    -3.2185  -3.2176  -3.0972  -3.0961  -3.0485  -2.9492  -2.9484  -2.9174
    -2.9164  -2.9154  -2.8935  -2.8931  -2.8140  -2.7844  -2.7705  -2.7701
    -2.7408  -2.7399  -2.7190  -2.6816  -2.6733  -2.6729  -2.6670  -2.6498
    -2.6230  -2.6222  -2.5702  -2.5582  -2.5578  -2.5382  -2.5373  -2.5363
     3.0539   3.0543   3.1585   3.1658   3.2829   3.2831   3.3590   3.4007
     3.4016   3.4504   3.4508   3.5122   3.5147   3.5620   3.5898   3.5902
     3.7039   3.7486   3.7490   3.8839   3.8841   4.1423   4.1430   4.1546
     4.1993   4.2000   4.2188   4.2193   4.2723   4.3765   4.3766   4.3917
     4.3921   4.4289   4.5309   4.6432   4.6438   4.6665   4.6995   4.8175
     4.8647   4.8672   4.9606   4.9613   5.0146   5.2473   5.2941   5.2951
     5.3510   5.3512   5.4145   5.4294   5.4295   5.4880   5.4889   5.5146
     5.5151   5.7377   5.7385   5.7873   5.8294   5.9120   5.9126   5.9784
     6.0208   6.0211   6.0485   6.1496   6.1504   6.2230   6.2647   6.2653
     6.2721   6.4006   6.4009   6.5279   6.5367   6.5370   6.5609   6.5621
     6.5663   6.5775   6.5783   6.6212   6.6219   6.6568   6.6575   6.6715
     6.6722   6.7693   6.7825   6.7831   6.8162   6.8163   6.8393   6.8510
     6.8844   6.9223   6.9226   6.9568   7.0187   7.0909   7.4051   7.4056
     7.5789   7.5798   7.6051   7.9041   8.6470   8.6470   8.6476   8.6477
     8.7037   8.7489   9.1214   9.1605   9.1612   9.2497   9.2498   9.3420
     9.4155   9.4159   9.4271   9.4275   9.4933   9.5403   9.6217   9.6218
     9.8072   9.8077   9.8344   9.8524   9.8785   9.9948  10.0286  10.0287
    10.1157  10.1163  10.1197  10.1198  10.1412  10.1415  10.2144  10.2620
    10.2630  10.2920  10.2924  10.3619  10.3700  10.4088  10.4089  10.5882
    10.5887  10.7089  10.8406  10.8418  10.8565  10.8724  10.9064  10.9675
    10.9678  10.9919  10.9950  10.9955  11.0717  11.0723  11.0920  11.1398
    11.1402  11.1866  11.1968  11.2175  11.2389  11.2696  11.2702  11.2928
    11.2931  11.3424  11.3428  11.3434  11.3439  11.3753  11.3758  11.5728
    11.6088  11.8017  11.9138  11.9143  11.9175  11.9175  11.9592  11.9783
    11.9811  11.9893  12.0015  12.0019  12.0720  12.0725  12.0960  12.0962
    12.1043  12.1044  12.1136  12.1590  12.3160  12.3811  12.3844  12.4207
    12.4210  12.4436  12.5110  12.5312  12.5322  12.6120  12.6122  12.6621

     occupation numbers 
     1.0000   1.0000   1.0000   1.0000   1.0000   1.0000   1.0000   1.0000
     1.0000   1.0000   1.0000   1.0000   1.0000   1.0000   1.0000   1.0000
     1.0000   1.0000   1.0000   1.0000   1.0000   1.0000   1.0000   1.0000
     1.0000   1.0000   1.0000   1.0000   1.0000   1.0000   1.0000   1.0000
     1.0000   1.0000   1.0000   1.0000   1.0000   1.0000   1.0000   1.0000
     1.0000   1.0000   1.0000   1.0000   1.0000   1.0000   1.0000   1.0000
     1.0000   1.0000   1.0000   1.0000   1.0000   1.0000   1.0000   1.0000
     1.0000   1.0000   1.0000   1.0000   1.0000   1.0000   1.0000   1.0000
     1.0000   1.0000   1.0000   1.0000   1.0000   1.0000   1.0000   1.0000
     1.0000   1.0000   1.0000   1.0000   1.0000   1.0000   1.0000   1.0000
     1.0000   1.0000   1.0000   1.0000   1.0000   1.0000   1.0000   1.0000
     1.0000   1.0000   1.0000   1.0000   1.0000   1.0000   1.0000   1.0000
     1.0000   1.0000   1.0000   1.0000   1.0000   1.0000   1.0000   1.0000
     1.0000   1.0000   1.0000   1.0000   1.0000   1.0000   1.0000   1.0000
     1.0000   1.0000   1.0000   1.0000   1.0000   1.0000   1.0000   1.0000
     1.0000   1.0000   1.0000   1.0000   1.0000   1.0000   1.0000   1.0000
     1.0000   1.0000   1.0000   1.0000   1.0000   1.0000   1.0000   1.0000
     1.0000   1.0000   1.0000   1.0000   1.0000   1.0000   1.0000   1.0000
     1.0000   1.0000   1.0000   1.0000   1.0000   1.0000   1.0000   1.0000
     1.0000   1.0000   1.0000   1.0000   1.0000   1.0000   1.0000   1.0000
     1.0000   1.0000   1.0000   1.0000   1.0000   1.0000   1.0000   1.0000
     1.0000   1.0000   1.0000   1.0000   1.0000   1.0000   1.0000   1.0000
     1.0000   1.0000   1.0000   1.0000   1.0000   1.0000   1.0000   1.0000
     1.0000   1.0000   1.0000   1.0000   1.0000   1.0000   1.0000   1.0000
     1.0000   1.0000   1.0000   1.0000   1.0000   1.0000   1.0000   1.0000
     1.0000   1.0000   1.0000   1.0000   1.0000   1.0000   1.0000   1.0000
     1.0000   1.0000   1.0000   1.0000   1.0000   1.0000   1.0000   1.0000
     1.0000   1.0000   1.0000   1.0000   1.0000   1.0000   1.0000   1.0000
     1.0000   1.0000   1.0000   1.0000   1.0000   1.0000   1.0000   1.0000
     1.0000   1.0000   1.0000   1.0000   1.0000   1.0000   1.0000   1.0000
     1.0000   1.0000   1.0000   1.0000   1.0000   1.0000   1.0000   1.0000
     1.0000   1.0000   1.0000   1.0000   1.0000   1.0000   1.0000   1.0000
     1.0000   1.0000   1.0000   1.0000   1.0000   1.0000   1.0000   1.0000
     1.0000   1.0000   1.0000   1.0000   1.0000   1.0000   1.0000   1.0000
     1.0000   1.0000   1.0000   1.0000   1.0000   1.0000   1.0000   1.0000
     1.0000   1.0000   1.0000   1.0000   1.0000   1.0000   1.0000   1.0000
     1.0000   1.0000   1.0000   1.0000   1.0000   1.0000   1.0000   1.0000
     1.0000   1.0000   1.0000   1.0000   1.0000   1.0000   1.0000   1.0000
     1.0000   1.0000   1.0000   1.0000   1.0000   1.0000   1.0000   1.0000
     1.0000   1.0000   1.0000   1.0000   1.0000   1.0000   1.0000   1.0000
     1.0000   1.0000   1.0000   1.0000   1.0000   1.0000   1.0000   1.0000
     1.0000   1.0000   1.0000   1.0000   1.0000   1.0000   1.0000   1.0000
     1.0000   1.0000   1.0000   1.0000   1.0000   1.0000   1.0000   1.0000
     1.0000   1.0000   1.0000   1.0000   1.0000   1.0000   1.0000   1.0000
     1.0000   1.0000   1.0000   1.0000   1.0000   1.0000   1.0000   1.0000
     1.0000   1.0000   1.0000   1.0000   1.0000   1.0000   1.0000   1.0000
     1.0000   1.0000   1.0000   1.0000   1.0000   1.0000   1.0000   1.0000
     1.0000   1.0000   1.0000   1.0000   1.0000   1.0000   1.0000   1.0000
     1.0000   1.0000   1.0000   1.0000   1.0000   1.0000   1.0000   1.0000
     1.0000   1.0000   1.0000   1.0000   1.0000   1.0000   1.0000   1.0000
     1.0000   1.0000   1.0000   1.0000   1.0000   1.0000   1.0000   1.0000
     1.0000   1.0000   1.0000   1.0000   1.0000   1.0000   1.0000   1.0000
     1.0000   1.0000   1.0000   1.0000   1.0000   1.0000   1.0000   1.0000
     1.0000   1.0000   1.0000   1.0000   1.0000   1.0000   1.0000   1.0000
     1.0000   1.0000   1.0000   1.0000   1.0000   1.0000   1.0000   1.0000
     1.0000   1.0000   1.0000   1.0000   1.0000   1.0000   1.0000   1.0000
     1.0000   1.0000   1.0000   1.0000   1.0000   1.0000   1.0000   1.0000
     1.0000   1.0000   1.0000   1.0000   1.0000   1.0000   1.0000   1.0000
     1.0000   1.0000   1.0000   1.0000   1.0000   1.0000   1.0000   1.0000
     1.0000   1.0000   1.0000   1.0000   1.0000   1.0000   1.0000   1.0000
     1.0000   1.0000   1.0000   1.0000   1.0000   1.0000   1.0000   1.0000
     1.0000   1.0000   1.0000   1.0000   1.0000   1.0000   1.0000   1.0000
     1.0000   1.0000   1.0000   1.0000   1.0000   1.0000   1.0000   1.0000
     1.0000   1.0000   1.0000   1.0000   1.0000   1.0000   1.0000   1.0000
     1.0000   1.0000   1.0000   1.0000   1.0000   1.0000   1.0000   1.0000
     1.0000   1.0000   1.0000   1.0000   1.0000   1.0000   1.0000   1.0000
     1.0000   1.0000   1.0000   1.0000   1.0000   1.0000   1.0000   1.0000
     1.0001   1.0001   1.0004   0.8924  -0.0000  -0.0000  -0.0000  -0.0000
    -0.0000  -0.0000  -0.0000  -0.0000  -0.0000  -0.0000  -0.0000  -0.0000
    -0.0000  -0.0000  -0.0000  -0.0000  -0.0000  -0.0000  -0.0000  -0.0000
    -0.0000  -0.0000  -0.0000  -0.0000  -0.0000  -0.0000  -0.0000  -0.0000
    -0.0000  -0.0000  -0.0000  -0.0000  -0.0000  -0.0000  -0.0000  -0.0000
    -0.0000  -0.0000  -0.0000  -0.0000  -0.0000  -0.0000  -0.0000  -0.0000
    -0.0000  -0.0000  -0.0000  -0.0000  -0.0000  -0.0000  -0.0000  -0.0000
    -0.0000  -0.0000  -0.0000  -0.0000  -0.0000  -0.0000  -0.0000  -0.0000
    -0.0000  -0.0000  -0.0000  -0.0000  -0.0000  -0.0000  -0.0000  -0.0000
    -0.0000  -0.0000  -0.0000  -0.0000  -0.0000  -0.0000  -0.0000  -0.0000
    -0.0000  -0.0000  -0.0000  -0.0000  -0.0000  -0.0000  -0.0000  -0.0000
    -0.0000  -0.0000  -0.0000  -0.0000  -0.0000  -0.0000  -0.0000  -0.0000
    -0.0000  -0.0000  -0.0000  -0.0000  -0.0000  -0.0000  -0.0000  -0.0000
    -0.0000  -0.0000  -0.0000  -0.0000  -0.0000  -0.0000  -0.0000  -0.0000

          k = 0.5000 0.0000 0.0000 (554595 PWs)   bands (ev):

   -68.2851 -68.2849 -68.2848 -68.2848 -68.2846 -68.2846 -68.2846 -68.2846
   -68.2846 -68.2846 -68.2846 -68.2846 -68.2846 -68.2845 -68.2844 -68.2844
   -68.2842 -68.2841 -67.7467 -67.7456 -67.7455 -67.7452 -67.7448 -67.7446
   -67.7446 -67.7445 -67.7444 -67.7444 -67.7443 -67.7443 -67.7442 -67.7441
   -67.7441 -67.7441 -67.7441 -67.7440 -67.7439 -67.7439 -67.7438 -67.7438
   -67.7438 -67.7437 -67.7436 -67.7436 -67.7435 -67.7435 -67.7434 -67.7433
   -67.7433 -67.7431 -67.7428 -67.7424 -67.7423 -67.7412 -35.6961 -35.6960
   -35.6959 -35.6959 -35.6957 -35.6957 -35.6957 -35.6957 -35.6956 -35.6956
   -35.6956 -35.6956 -35.6956 -35.6956 -35.6954 -35.6954 -35.6953 -35.6952
   -35.6912 -35.6912 -35.6911 -35.6911 -35.6910 -35.6910 -35.6910 -35.6909
   -35.6908 -35.6908 -35.6908 -35.6908 -35.6908 -35.6908 -35.6907 -35.6907
   -35.6907 -35.6907 -35.6907 -35.6907 -35.6907 -35.6907 -35.6907 -35.6907
   -35.6907 -35.6907 -35.6906 -35.6906 -35.6905 -35.6905 -35.6905 -35.6905
   -35.6904 -35.6903 -35.6903 -35.6902 -35.1792 -35.1789 -35.1784 -35.1783
   -35.1782 -35.1781 -35.1779 -35.1778 -35.1777 -35.1776 -35.1775 -35.1775
   -35.1774 -35.1774 -35.1773 -35.1773 -35.1773 -35.1772 -35.1772 -35.1772
   -35.1771 -35.1771 -35.1771 -35.1770 -35.1770 -35.1769 -35.1768 -35.1768
   -35.1767 -35.1766 -35.1765 -35.1765 -35.1764 -35.1764 -35.1763 -35.1763
   -35.1762 -35.1761 -35.1761 -35.1761 -35.1759 -35.1757 -35.1756 -35.1755
   -35.1753 -35.1753 -35.1752 -35.1751 -35.1750 -35.1748 -35.1747 -35.1743
   -35.1741 -35.1736 -35.1720 -35.1715 -35.1714 -35.1712 -35.1711 -35.1710
   -35.1709 -35.1707 -35.1706 -35.1706 -35.1705 -35.1705 -35.1704 -35.1704
   -35.1704 -35.1702 -35.1701 -35.1700 -35.1700 -35.1698 -35.1697 -35.1697
   -35.1696 -35.1696 -35.1694 -35.1693 -35.1692 -35.1692 -35.1691 -35.1690
   -35.1690 -35.1689 -35.1687 -35.1687 -35.1686 -35.1686 -35.1685 -35.1684
   -35.1683 -35.1683 -35.1682 -35.1682 -35.1682 -35.1681 -35.1681 -35.1680
   -35.1680 -35.1678 -35.1677 -35.1676 -35.1673 -35.1672 -35.1669 -35.1663
   -14.2177 -14.2173 -14.2166 -14.2164 -14.2161 -14.2157 -14.2153 -14.2151
   -14.2150 -14.2148 -14.2147 -14.2146 -14.2145 -14.2141 -14.2140 -14.2139
   -14.2137 -14.2129 -14.2124 -14.2117 -14.2116 -14.2112 -14.2111 -14.2110
   -14.2109 -14.2109 -14.2108 -14.2105 -14.2104 -14.2103 -14.2102 -14.2102
   -14.2098 -14.2096 -14.2094 -14.2093 -14.2091 -14.2088 -14.2087 -14.2086
   -14.2084 -14.2083 -14.2082 -14.2082 -14.2081 -14.2080 -14.2078 -14.2077
   -14.2076 -14.2075 -14.2074 -14.2073 -14.2072 -14.2072 -14.2071 -14.2070
   -14.2068 -14.2066 -14.2064 -14.2060 -14.2059 -14.2055 -14.2052 -14.2049
   -14.2047 -14.2045 -14.2042 -14.2040 -14.2035 -14.2030 -14.2025 -14.2022
   -14.1900 -14.1885 -14.1882 -14.1879 -14.1877 -14.1874 -14.1873 -14.1871
   -14.1870 -14.1867 -14.1864 -14.1862 -14.1861 -14.1861 -14.1859 -14.1858
   -14.1857 -14.1855 -14.1853 -14.1851 -14.1850 -14.1850 -14.1847 -14.1845
   -14.1838 -14.1837 -14.1836 -14.1835 -14.1834 -14.1829 -14.1827 -14.1826
   -14.1824 -14.1822 -14.1821 -14.1808 -14.1744 -14.1741 -14.1736 -14.1735
   -14.1731 -14.1730 -14.1727 -14.1726 -14.1725 -14.1724 -14.1723 -14.1721
   -14.1721 -14.1719 -14.1718 -14.1716 -14.1712 -14.1710 -14.1708 -14.1706
   -14.1705 -14.1703 -14.1697 -14.1695 -14.1691 -14.1690 -14.1686 -14.1684
   -14.1675 -14.1673 -14.1672 -14.1667 -14.1666 -14.1665 -14.1661 -14.1653
   -14.1652 -14.1651 -14.1651 -14.1647 -14.1646 -14.1641 -14.1633 -14.1630
   -14.1629 -14.1628 -14.1627 -14.1624 -14.1613 -14.1613 -14.1612 -14.1611
   -14.1604 -14.1602 -14.1594 -14.1590 -14.1589 -14.1587 -14.1585 -14.1584
   -14.1582 -14.1582 -14.1581 -14.1578 -14.1575 -14.1574 -14.1572 -14.1571
   -14.1568 -14.1565 -14.1560 -14.1557  -3.6094  -3.4624  -3.4622  -3.3470
    -3.2181  -3.2179  -3.0969  -3.0964  -3.0485  -2.9489  -2.9487  -2.9172
    -2.9167  -2.9153  -2.8933  -2.8932  -2.8140  -2.7844  -2.7703  -2.7702
    -2.7406  -2.7401  -2.7190  -2.6816  -2.6732  -2.6731  -2.6670  -2.6498
    -2.6227  -2.6225  -2.5702  -2.5580  -2.5580  -2.5383  -2.5370  -2.5365
     3.0540   3.0542   3.1585   3.1658   3.2829   3.2831   3.3589   3.4010
     3.4012   3.4505   3.4507   3.5122   3.5147   3.5620   3.5900   3.5900
     3.7039   3.7487   3.7489   3.8839   3.8841   4.1425   4.1428   4.1546
     4.1995   4.1997   4.2189   4.2192   4.2723   4.3765   4.3766   4.3918
     4.3919   4.4289   4.5309   4.6435   4.6435   4.6665   4.6995   4.8175
     4.8647   4.8672   4.9608   4.9611   5.0146   5.2473   5.2945   5.2947
     5.3510   5.3512   5.4145   5.4293   5.4296   5.4882   5.4887   5.5148
     5.5149   5.7380   5.7382   5.7873   5.8294   5.9123   5.9123   5.9784
     6.0209   6.0210   6.0485   6.1498   6.1502   6.2230   6.2650   6.2651
     6.2721   6.4007   6.4008   6.5279   6.5368   6.5370   6.5613   6.5618
     6.5663   6.5777   6.5781   6.6214   6.6217   6.6571   6.6573   6.6717
     6.6720   6.7693   6.7827   6.7828   6.8162   6.8162   6.8393   6.8510
     6.8844   6.9224   6.9225   6.9568   7.0187   7.0909   7.4052   7.4056
     7.5793   7.5794   7.6051   7.9041   8.6470   8.6470   8.6476   8.6477
     8.7037   8.7489   9.1214   9.1608   9.1609   9.2497   9.2497   9.3420
     9.4156   9.4158   9.4272   9.4274   9.4933   9.5404   9.6216   9.6218
     9.8073   9.8076   9.8344   9.8524   9.8785   9.9948  10.0286  10.0287
    10.1158  10.1162  10.1197  10.1198  10.1413  10.1413  10.2144  10.2623
    10.2627  10.2921  10.2922  10.3619  10.3700  10.4089  10.4089  10.5882
    10.5887  10.7089  10.8409  10.8414  10.8565  10.8724  10.9064  10.9677
    10.9677  10.9919  10.9952  10.9953  11.0720  11.0720  11.0920  11.1399
    11.1401  11.1866  11.1967  11.2175  11.2389  11.2697  11.2701  11.2929
    11.2929  11.3425  11.3427  11.3436  11.3437  11.3754  11.3758  11.5728
    11.6088  11.8017  11.9140  11.9141  11.9175  11.9176  11.9592  11.9783
    11.9811  11.9893  12.0017  12.0018  12.0722  12.0723  12.0959  12.0962
    12.1042  12.1045  12.1136  12.1590  12.3160  12.3811  12.3844  12.4208
    12.4209  12.4436  12.5110  12.5314  12.5321  12.6120  12.6123  12.6622

     occupation numbers 
     1.0000   1.0000   1.0000   1.0000   1.0000   1.0000   1.0000   1.0000
     1.0000   1.0000   1.0000   1.0000   1.0000   1.0000   1.0000   1.0000
     1.0000   1.0000   1.0000   1.0000   1.0000   1.0000   1.0000   1.0000
     1.0000   1.0000   1.0000   1.0000   1.0000   1.0000   1.0000   1.0000
     1.0000   1.0000   1.0000   1.0000   1.0000   1.0000   1.0000   1.0000
     1.0000   1.0000   1.0000   1.0000   1.0000   1.0000   1.0000   1.0000
     1.0000   1.0000   1.0000   1.0000   1.0000   1.0000   1.0000   1.0000
     1.0000   1.0000   1.0000   1.0000   1.0000   1.0000   1.0000   1.0000
     1.0000   1.0000   1.0000   1.0000   1.0000   1.0000   1.0000   1.0000
     1.0000   1.0000   1.0000   1.0000   1.0000   1.0000   1.0000   1.0000
     1.0000   1.0000   1.0000   1.0000   1.0000   1.0000   1.0000   1.0000
     1.0000   1.0000   1.0000   1.0000   1.0000   1.0000   1.0000   1.0000
     1.0000   1.0000   1.0000   1.0000   1.0000   1.0000   1.0000   1.0000
     1.0000   1.0000   1.0000   1.0000   1.0000   1.0000   1.0000   1.0000
     1.0000   1.0000   1.0000   1.0000   1.0000   1.0000   1.0000   1.0000
     1.0000   1.0000   1.0000   1.0000   1.0000   1.0000   1.0000   1.0000
     1.0000   1.0000   1.0000   1.0000   1.0000   1.0000   1.0000   1.0000
     1.0000   1.0000   1.0000   1.0000   1.0000   1.0000   1.0000   1.0000
     1.0000   1.0000   1.0000   1.0000   1.0000   1.0000   1.0000   1.0000
     1.0000   1.0000   1.0000   1.0000   1.0000   1.0000   1.0000   1.0000
     1.0000   1.0000   1.0000   1.0000   1.0000   1.0000   1.0000   1.0000
     1.0000   1.0000   1.0000   1.0000   1.0000   1.0000   1.0000   1.0000
     1.0000   1.0000   1.0000   1.0000   1.0000   1.0000   1.0000   1.0000
     1.0000   1.0000   1.0000   1.0000   1.0000   1.0000   1.0000   1.0000
     1.0000   1.0000   1.0000   1.0000   1.0000   1.0000   1.0000   1.0000
     1.0000   1.0000   1.0000   1.0000   1.0000   1.0000   1.0000   1.0000
     1.0000   1.0000   1.0000   1.0000   1.0000   1.0000   1.0000   1.0000
     1.0000   1.0000   1.0000   1.0000   1.0000   1.0000   1.0000   1.0000
     1.0000   1.0000   1.0000   1.0000   1.0000   1.0000   1.0000   1.0000
     1.0000   1.0000   1.0000   1.0000   1.0000   1.0000   1.0000   1.0000
     1.0000   1.0000   1.0000   1.0000   1.0000   1.0000   1.0000   1.0000
     1.0000   1.0000   1.0000   1.0000   1.0000   1.0000   1.0000   1.0000
     1.0000   1.0000   1.0000   1.0000   1.0000   1.0000   1.0000   1.0000
     1.0000   1.0000   1.0000   1.0000   1.0000   1.0000   1.0000   1.0000
     1.0000   1.0000   1.0000   1.0000   1.0000   1.0000   1.0000   1.0000
     1.0000   1.0000   1.0000   1.0000   1.0000   1.0000   1.0000   1.0000
     1.0000   1.0000   1.0000   1.0000   1.0000   1.0000   1.0000   1.0000
     1.0000   1.0000   1.0000   1.0000   1.0000   1.0000   1.0000   1.0000
     1.0000   1.0000   1.0000   1.0000   1.0000   1.0000   1.0000   1.0000
     1.0000   1.0000   1.0000   1.0000   1.0000   1.0000   1.0000   1.0000
     1.0000   1.0000   1.0000   1.0000   1.0000   1.0000   1.0000   1.0000
     1.0000   1.0000   1.0000   1.0000   1.0000   1.0000   1.0000   1.0000
     1.0000   1.0000   1.0000   1.0000   1.0000   1.0000   1.0000   1.0000
     1.0000   1.0000   1.0000   1.0000   1.0000   1.0000   1.0000   1.0000
     1.0000   1.0000   1.0000   1.0000   1.0000   1.0000   1.0000   1.0000
     1.0000   1.0000   1.0000   1.0000   1.0000   1.0000   1.0000   1.0000
     1.0000   1.0000   1.0000   1.0000   1.0000   1.0000   1.0000   1.0000
     1.0000   1.0000   1.0000   1.0000   1.0000   1.0000   1.0000   1.0000
     1.0000   1.0000   1.0000   1.0000   1.0000   1.0000   1.0000   1.0000
     1.0000   1.0000   1.0000   1.0000   1.0000   1.0000   1.0000   1.0000
     1.0000   1.0000   1.0000   1.0000   1.0000   1.0000   1.0000   1.0000
     1.0000   1.0000   1.0000   1.0000   1.0000   1.0000   1.0000   1.0000
     1.0000   1.0000   1.0000   1.0000   1.0000   1.0000   1.0000   1.0000
     1.0000   1.0000   1.0000   1.0000   1.0000   1.0000   1.0000   1.0000
     1.0000   1.0000   1.0000   1.0000   1.0000   1.0000   1.0000   1.0000
     1.0000   1.0000   1.0000   1.0000   1.0000   1.0000   1.0000   1.0000
     1.0000   1.0000   1.0000   1.0000   1.0000   1.0000   1.0000   1.0000
     1.0000   1.0000   1.0000   1.0000   1.0000   1.0000   1.0000   1.0000
     1.0000   1.0000   1.0000   1.0000   1.0000   1.0000   1.0000   1.0000
     1.0000   1.0000   1.0000   1.0000   1.0000   1.0000   1.0000   1.0000
     1.0000   1.0000   1.0000   1.0000   1.0000   1.0000   1.0000   1.0000
     1.0000   1.0000   1.0000   1.0000   1.0000   1.0000   1.0000   1.0000
     1.0000   1.0000   1.0000   1.0000   1.0000   1.0000   1.0000   1.0000
     1.0000   1.0000   1.0000   1.0000   1.0000   1.0000   1.0000   1.0000
     1.0000   1.0000   1.0000   1.0000   1.0000   1.0000   1.0000   1.0000
     1.0000   1.0000   1.0000   1.0000   1.0000   1.0000   1.0000   1.0000
     1.0000   1.0000   1.0000   1.0000   1.0000   1.0000   1.0000   1.0000
     1.0001   1.0001   1.0004   0.8924  -0.0000  -0.0000  -0.0000  -0.0000
    -0.0000  -0.0000  -0.0000  -0.0000  -0.0000  -0.0000  -0.0000  -0.0000
    -0.0000  -0.0000  -0.0000  -0.0000  -0.0000  -0.0000  -0.0000  -0.0000
    -0.0000  -0.0000  -0.0000  -0.0000  -0.0000  -0.0000  -0.0000  -0.0000
    -0.0000  -0.0000  -0.0000  -0.0000  -0.0000  -0.0000  -0.0000  -0.0000
    -0.0000  -0.0000  -0.0000  -0.0000  -0.0000  -0.0000  -0.0000  -0.0000
    -0.0000  -0.0000  -0.0000  -0.0000  -0.0000  -0.0000  -0.0000  -0.0000
    -0.0000  -0.0000  -0.0000  -0.0000  -0.0000  -0.0000  -0.0000  -0.0000
    -0.0000  -0.0000  -0.0000  -0.0000  -0.0000  -0.0000  -0.0000  -0.0000
    -0.0000  -0.0000  -0.0000  -0.0000  -0.0000  -0.0000  -0.0000  -0.0000
    -0.0000  -0.0000  -0.0000  -0.0000  -0.0000  -0.0000  -0.0000  -0.0000
    -0.0000  -0.0000  -0.0000  -0.0000  -0.0000  -0.0000  -0.0000  -0.0000
    -0.0000  -0.0000  -0.0000  -0.0000  -0.0000  -0.0000  -0.0000  -0.0000
    -0.0000  -0.0000  -0.0000  -0.0000  -0.0000  -0.0000  -0.0000  -0.0000

          k =-0.2500-0.4330 0.2373 (554556 PWs)   bands (ev):

   -68.2851 -68.2849 -68.2848 -68.2848 -68.2846 -68.2846 -68.2846 -68.2846
   -68.2846 -68.2846 -68.2846 -68.2846 -68.2846 -68.2845 -68.2844 -68.2844
   -68.2842 -68.2841 -67.7467 -67.7456 -67.7455 -67.7452 -67.7448 -67.7446
   -67.7446 -67.7445 -67.7444 -67.7444 -67.7443 -67.7443 -67.7442 -67.7441
   -67.7441 -67.7441 -67.7441 -67.7440 -67.7439 -67.7439 -67.7438 -67.7438
   -67.7438 -67.7437 -67.7436 -67.7436 -67.7435 -67.7435 -67.7434 -67.7433
   -67.7433 -67.7431 -67.7428 -67.7424 -67.7423 -67.7412 -35.6961 -35.6960
   -35.6959 -35.6959 -35.6957 -35.6957 -35.6957 -35.6957 -35.6956 -35.6956
   -35.6956 -35.6956 -35.6956 -35.6956 -35.6954 -35.6954 -35.6953 -35.6952
   -35.6912 -35.6912 -35.6911 -35.6911 -35.6910 -35.6910 -35.6910 -35.6909
   -35.6908 -35.6908 -35.6908 -35.6908 -35.6908 -35.6908 -35.6907 -35.6907
   -35.6907 -35.6907 -35.6907 -35.6907 -35.6907 -35.6907 -35.6907 -35.6907
   -35.6907 -35.6907 -35.6906 -35.6906 -35.6905 -35.6905 -35.6905 -35.6905
   -35.6904 -35.6903 -35.6903 -35.6902 -35.1792 -35.1789 -35.1784 -35.1783
   -35.1782 -35.1781 -35.1779 -35.1778 -35.1777 -35.1776 -35.1775 -35.1775
   -35.1774 -35.1774 -35.1773 -35.1773 -35.1773 -35.1772 -35.1772 -35.1772
   -35.1771 -35.1771 -35.1771 -35.1770 -35.1770 -35.1769 -35.1768 -35.1768
   -35.1767 -35.1766 -35.1766 -35.1765 -35.1764 -35.1764 -35.1764 -35.1763
   -35.1762 -35.1761 -35.1761 -35.1760 -35.1759 -35.1758 -35.1756 -35.1754
   -35.1753 -35.1753 -35.1752 -35.1752 -35.1750 -35.1748 -35.1747 -35.1742
   -35.1741 -35.1735 -35.1720 -35.1715 -35.1714 -35.1712 -35.1711 -35.1710
   -35.1709 -35.1707 -35.1706 -35.1706 -35.1706 -35.1705 -35.1704 -35.1704
   -35.1704 -35.1702 -35.1701 -35.1700 -35.1700 -35.1698 -35.1697 -35.1697
   -35.1695 -35.1695 -35.1694 -35.1693 -35.1693 -35.1692 -35.1692 -35.1690
   -35.1689 -35.1688 -35.1687 -35.1687 -35.1686 -35.1685 -35.1685 -35.1684
   -35.1683 -35.1682 -35.1682 -35.1682 -35.1682 -35.1681 -35.1681 -35.1680
   -35.1680 -35.1678 -35.1677 -35.1676 -35.1673 -35.1672 -35.1669 -35.1663
   -14.2175 -14.2173 -14.2166 -14.2164 -14.2161 -14.2156 -14.2153 -14.2152
   -14.2150 -14.2148 -14.2147 -14.2146 -14.2144 -14.2142 -14.2140 -14.2139
   -14.2137 -14.2130 -14.2122 -14.2117 -14.2116 -14.2113 -14.2110 -14.2110
   -14.2108 -14.2107 -14.2106 -14.2106 -14.2105 -14.2102 -14.2101 -14.2100
   -14.2097 -14.2095 -14.2094 -14.2093 -14.2091 -14.2089 -14.2088 -14.2087
   -14.2086 -14.2085 -14.2083 -14.2082 -14.2080 -14.2079 -14.2078 -14.2078
   -14.2077 -14.2076 -14.2076 -14.2076 -14.2073 -14.2073 -14.2071 -14.2069
   -14.2067 -14.2066 -14.2063 -14.2059 -14.2056 -14.2055 -14.2050 -14.2050
   -14.2046 -14.2043 -14.2041 -14.2039 -14.2036 -14.2032 -14.2027 -14.2022
   -14.1900 -14.1884 -14.1882 -14.1878 -14.1876 -14.1874 -14.1873 -14.1870
   -14.1870 -14.1866 -14.1865 -14.1863 -14.1862 -14.1861 -14.1860 -14.1858
   -14.1856 -14.1856 -14.1854 -14.1851 -14.1851 -14.1849 -14.1847 -14.1844
   -14.1838 -14.1837 -14.1836 -14.1835 -14.1833 -14.1829 -14.1826 -14.1825
   -14.1824 -14.1822 -14.1821 -14.1808 -14.1745 -14.1741 -14.1736 -14.1735
   -14.1731 -14.1730 -14.1728 -14.1726 -14.1726 -14.1723 -14.1722 -14.1720
   -14.1720 -14.1718 -14.1716 -14.1715 -14.1713 -14.1712 -14.1709 -14.1707
   -14.1704 -14.1703 -14.1698 -14.1696 -14.1691 -14.1689 -14.1687 -14.1684
   -14.1676 -14.1672 -14.1671 -14.1668 -14.1667 -14.1664 -14.1660 -14.1654
   -14.1653 -14.1652 -14.1650 -14.1647 -14.1644 -14.1641 -14.1632 -14.1631
   -14.1630 -14.1629 -14.1627 -14.1624 -14.1614 -14.1613 -14.1611 -14.1610
   -14.1604 -14.1603 -14.1593 -14.1590 -14.1588 -14.1585 -14.1585 -14.1583
   -14.1583 -14.1581 -14.1580 -14.1578 -14.1576 -14.1574 -14.1573 -14.1570
   -14.1569 -14.1566 -14.1562 -14.1557  -3.5845  -3.4393  -3.4387  -3.4127
    -3.2796  -3.2786  -3.0796  -3.0788  -2.9681  -2.9622  -2.9605  -2.9025
    -2.8821  -2.8803  -2.8767  -2.8755  -2.8164  -2.8046  -2.8026  -2.7990
    -2.7424  -2.7225  -2.6935  -2.6913  -2.6586  -2.6578  -2.6458  -2.6416
    -2.6353  -2.6287  -2.5775  -2.5701  -2.5678  -2.5584  -2.5571  -2.5507
     3.0497   3.0838   3.1800   3.2115   3.2403   3.2621   3.3182   3.4615
     3.4813   3.5282   3.5291   3.5305   3.5619   3.6039   3.6216   3.6479
     3.6909   3.7025   3.7572   3.8555   3.8859   3.9194   3.9296   3.9769
     3.9779   3.9963   4.0592   4.0714   4.1213   4.1540   4.5998   4.6417
     4.6619   4.6691   4.6759   4.6987   4.7445   4.7513   4.8223   4.8339
     4.9509   4.9597   5.0222   5.1218   5.2361   5.2430   5.2490   5.3212
     5.3437   5.3547   5.3669   5.3793   5.3901   5.4140   5.4733   5.5107
     5.5545   5.7347   5.7371   5.7858   5.7877   5.8655   5.9109   5.9343
     5.9825   6.0235   6.0779   6.0957   6.1136   6.1428   6.1670   6.1878
     6.1918   6.1926   6.2496   6.2533   6.3218   6.3448   6.3622   6.3733
     6.4014   6.4415   6.4505   6.4549   6.7231   6.7727   6.7987   6.8136
     6.8193   6.8485   6.8586   6.8686   6.9574   6.9580   6.9984   7.0292
     7.0315   7.0989   7.1191   7.1212   7.1414   7.2378   7.2999   7.3306
     7.5507   7.5913   7.5966   7.7854   8.3091   8.5837   8.6149   8.6710
     8.8865   8.8942   8.9656   9.1036   9.2167   9.2207   9.3436   9.3580
     9.3587   9.4247   9.5225   9.5735   9.5743   9.5982   9.6569   9.6624
     9.7837   9.7880   9.8814   9.9334   9.9343   9.9544   9.9679  10.0068
    10.0479  10.0620  10.0715  10.2325  10.2411  10.2702  10.2721  10.2808
    10.2858  10.3862  10.4405  10.4478  10.4485  10.4801  10.4849  10.5269
    10.5789  10.6266  10.6608  10.6666  10.7291  10.7435  10.7519  10.7538
    10.7957  10.8335  10.8633  10.9351  11.0027  11.0047  11.0082  11.0915
    11.1777  11.2173  11.2557  11.2713  11.3009  11.3330  11.3479  11.3588
    11.3678  11.3803  11.4174  11.5079  11.5472  11.5623  11.5706  11.5725
    11.6067  11.6082  11.6201  11.6305  11.6448  11.7676  11.8266  11.8293
    11.8403  11.8632  11.8855  11.9040  11.9710  12.1096  12.1174  12.1411
    12.1525  12.1560  12.1580  12.2474  12.2675  12.3480  12.3524  12.3793
    12.3946  12.4218  12.4930  12.5224  12.5656  12.5963  12.5972  12.7027

     occupation numbers 
     1.0000   1.0000   1.0000   1.0000   1.0000   1.0000   1.0000   1.0000
     1.0000   1.0000   1.0000   1.0000   1.0000   1.0000   1.0000   1.0000
     1.0000   1.0000   1.0000   1.0000   1.0000   1.0000   1.0000   1.0000
     1.0000   1.0000   1.0000   1.0000   1.0000   1.0000   1.0000   1.0000
     1.0000   1.0000   1.0000   1.0000   1.0000   1.0000   1.0000   1.0000
     1.0000   1.0000   1.0000   1.0000   1.0000   1.0000   1.0000   1.0000
     1.0000   1.0000   1.0000   1.0000   1.0000   1.0000   1.0000   1.0000
     1.0000   1.0000   1.0000   1.0000   1.0000   1.0000   1.0000   1.0000
     1.0000   1.0000   1.0000   1.0000   1.0000   1.0000   1.0000   1.0000
     1.0000   1.0000   1.0000   1.0000   1.0000   1.0000   1.0000   1.0000
     1.0000   1.0000   1.0000   1.0000   1.0000   1.0000   1.0000   1.0000
     1.0000   1.0000   1.0000   1.0000   1.0000   1.0000   1.0000   1.0000
     1.0000   1.0000   1.0000   1.0000   1.0000   1.0000   1.0000   1.0000
     1.0000   1.0000   1.0000   1.0000   1.0000   1.0000   1.0000   1.0000
     1.0000   1.0000   1.0000   1.0000   1.0000   1.0000   1.0000   1.0000
     1.0000   1.0000   1.0000   1.0000   1.0000   1.0000   1.0000   1.0000
     1.0000   1.0000   1.0000   1.0000   1.0000   1.0000   1.0000   1.0000
     1.0000   1.0000   1.0000   1.0000   1.0000   1.0000   1.0000   1.0000
     1.0000   1.0000   1.0000   1.0000   1.0000   1.0000   1.0000   1.0000
     1.0000   1.0000   1.0000   1.0000   1.0000   1.0000   1.0000   1.0000
     1.0000   1.0000   1.0000   1.0000   1.0000   1.0000   1.0000   1.0000
     1.0000   1.0000   1.0000   1.0000   1.0000   1.0000   1.0000   1.0000
     1.0000   1.0000   1.0000   1.0000   1.0000   1.0000   1.0000   1.0000
     1.0000   1.0000   1.0000   1.0000   1.0000   1.0000   1.0000   1.0000
     1.0000   1.0000   1.0000   1.0000   1.0000   1.0000   1.0000   1.0000
     1.0000   1.0000   1.0000   1.0000   1.0000   1.0000   1.0000   1.0000
     1.0000   1.0000   1.0000   1.0000   1.0000   1.0000   1.0000   1.0000
     1.0000   1.0000   1.0000   1.0000   1.0000   1.0000   1.0000   1.0000
     1.0000   1.0000   1.0000   1.0000   1.0000   1.0000   1.0000   1.0000
     1.0000   1.0000   1.0000   1.0000   1.0000   1.0000   1.0000   1.0000
     1.0000   1.0000   1.0000   1.0000   1.0000   1.0000   1.0000   1.0000
     1.0000   1.0000   1.0000   1.0000   1.0000   1.0000   1.0000   1.0000
     1.0000   1.0000   1.0000   1.0000   1.0000   1.0000   1.0000   1.0000
     1.0000   1.0000   1.0000   1.0000   1.0000   1.0000   1.0000   1.0000
     1.0000   1.0000   1.0000   1.0000   1.0000   1.0000   1.0000   1.0000
     1.0000   1.0000   1.0000   1.0000   1.0000   1.0000   1.0000   1.0000
     1.0000   1.0000   1.0000   1.0000   1.0000   1.0000   1.0000   1.0000
     1.0000   1.0000   1.0000   1.0000   1.0000   1.0000   1.0000   1.0000
     1.0000   1.0000   1.0000   1.0000   1.0000   1.0000   1.0000   1.0000
     1.0000   1.0000   1.0000   1.0000   1.0000   1.0000   1.0000   1.0000
     1.0000   1.0000   1.0000   1.0000   1.0000   1.0000   1.0000   1.0000
     1.0000   1.0000   1.0000   1.0000   1.0000   1.0000   1.0000   1.0000
     1.0000   1.0000   1.0000   1.0000   1.0000   1.0000   1.0000   1.0000
     1.0000   1.0000   1.0000   1.0000   1.0000   1.0000   1.0000   1.0000
     1.0000   1.0000   1.0000   1.0000   1.0000   1.0000   1.0000   1.0000
     1.0000   1.0000   1.0000   1.0000   1.0000   1.0000   1.0000   1.0000
     1.0000   1.0000   1.0000   1.0000   1.0000   1.0000   1.0000   1.0000
     1.0000   1.0000   1.0000   1.0000   1.0000   1.0000   1.0000   1.0000
     1.0000   1.0000   1.0000   1.0000   1.0000   1.0000   1.0000   1.0000
     1.0000   1.0000   1.0000   1.0000   1.0000   1.0000   1.0000   1.0000
     1.0000   1.0000   1.0000   1.0000   1.0000   1.0000   1.0000   1.0000
     1.0000   1.0000   1.0000   1.0000   1.0000   1.0000   1.0000   1.0000
     1.0000   1.0000   1.0000   1.0000   1.0000   1.0000   1.0000   1.0000
     1.0000   1.0000   1.0000   1.0000   1.0000   1.0000   1.0000   1.0000
     1.0000   1.0000   1.0000   1.0000   1.0000   1.0000   1.0000   1.0000
     1.0000   1.0000   1.0000   1.0000   1.0000   1.0000   1.0000   1.0000
     1.0000   1.0000   1.0000   1.0000   1.0000   1.0000   1.0000   1.0000
     1.0000   1.0000   1.0000   1.0000   1.0000   1.0000   1.0000   1.0000
     1.0000   1.0000   1.0000   1.0000   1.0000   1.0000   1.0000   1.0000
     1.0000   1.0000   1.0000   1.0000   1.0000   1.0000   1.0000   1.0000
     1.0000   1.0000   1.0000   1.0000   1.0000   1.0000   1.0000   1.0000
     1.0000   1.0000   1.0000   1.0000   1.0000   1.0000   1.0000   1.0000
     1.0000   1.0000   1.0000   1.0000   1.0000   1.0000   1.0000   1.0000
     1.0000   1.0000   1.0000   1.0000   1.0000   1.0000   1.0000   1.0000
     1.0000   1.0000   1.0000   1.0000   1.0000   1.0000   1.0000   1.0000
     1.0000   1.0000   1.0000   1.0000   1.0000   1.0000   1.0000   1.0000
     1.0000   1.0000   1.0000   1.0000   1.0000   1.0000   1.0000   1.0000
     1.0000   1.0002   1.0003   1.0312  -0.0015  -0.0000  -0.0000  -0.0000
    -0.0000  -0.0000  -0.0000  -0.0000  -0.0000  -0.0000  -0.0000  -0.0000
    -0.0000  -0.0000  -0.0000  -0.0000  -0.0000  -0.0000  -0.0000  -0.0000
    -0.0000  -0.0000  -0.0000  -0.0000  -0.0000  -0.0000  -0.0000  -0.0000
    -0.0000  -0.0000  -0.0000  -0.0000  -0.0000  -0.0000  -0.0000  -0.0000
    -0.0000  -0.0000  -0.0000  -0.0000  -0.0000  -0.0000  -0.0000  -0.0000
    -0.0000  -0.0000  -0.0000  -0.0000  -0.0000  -0.0000  -0.0000  -0.0000
    -0.0000  -0.0000  -0.0000  -0.0000  -0.0000  -0.0000  -0.0000  -0.0000
    -0.0000  -0.0000  -0.0000  -0.0000  -0.0000  -0.0000  -0.0000  -0.0000
    -0.0000  -0.0000  -0.0000  -0.0000  -0.0000  -0.0000  -0.0000  -0.0000
    -0.0000  -0.0000  -0.0000  -0.0000  -0.0000  -0.0000  -0.0000  -0.0000
    -0.0000  -0.0000  -0.0000  -0.0000  -0.0000  -0.0000  -0.0000  -0.0000
    -0.0000  -0.0000  -0.0000  -0.0000  -0.0000  -0.0000  -0.0000  -0.0000
    -0.0000  -0.0000  -0.0000  -0.0000  -0.0000  -0.0000  -0.0000  -0.0000

          k =-0.2500 0.4330-0.2373 (554556 PWs)   bands (ev):

   -68.2851 -68.2849 -68.2848 -68.2848 -68.2846 -68.2846 -68.2846 -68.2846
   -68.2846 -68.2846 -68.2846 -68.2846 -68.2846 -68.2845 -68.2844 -68.2844
   -68.2842 -68.2841 -67.7467 -67.7456 -67.7455 -67.7452 -67.7448 -67.7446
   -67.7446 -67.7445 -67.7444 -67.7444 -67.7443 -67.7443 -67.7442 -67.7441
   -67.7441 -67.7441 -67.7441 -67.7440 -67.7439 -67.7438 -67.7438 -67.7438
   -67.7438 -67.7437 -67.7436 -67.7436 -67.7435 -67.7435 -67.7434 -67.7433
   -67.7433 -67.7431 -67.7428 -67.7424 -67.7423 -67.7412 -35.6961 -35.6960
   -35.6959 -35.6959 -35.6957 -35.6957 -35.6957 -35.6957 -35.6956 -35.6956
   -35.6956 -35.6956 -35.6956 -35.6956 -35.6954 -35.6954 -35.6953 -35.6952
   -35.6912 -35.6912 -35.6911 -35.6911 -35.6910 -35.6910 -35.6910 -35.6909
   -35.6908 -35.6908 -35.6908 -35.6908 -35.6908 -35.6908 -35.6908 -35.6907
   -35.6907 -35.6907 -35.6907 -35.6907 -35.6907 -35.6907 -35.6907 -35.6907
   -35.6907 -35.6907 -35.6906 -35.6906 -35.6905 -35.6905 -35.6905 -35.6905
   -35.6904 -35.6903 -35.6903 -35.6902 -35.1792 -35.1789 -35.1785 -35.1784
   -35.1782 -35.1781 -35.1780 -35.1778 -35.1777 -35.1776 -35.1776 -35.1775
   -35.1774 -35.1774 -35.1774 -35.1773 -35.1773 -35.1772 -35.1772 -35.1771
   -35.1771 -35.1771 -35.1770 -35.1770 -35.1769 -35.1769 -35.1769 -35.1768
   -35.1768 -35.1766 -35.1766 -35.1765 -35.1764 -35.1764 -35.1763 -35.1763
   -35.1762 -35.1761 -35.1760 -35.1760 -35.1759 -35.1757 -35.1757 -35.1754
   -35.1754 -35.1753 -35.1751 -35.1751 -35.1750 -35.1748 -35.1748 -35.1744
   -35.1739 -35.1736 -35.1719 -35.1715 -35.1715 -35.1712 -35.1712 -35.1710
   -35.1708 -35.1707 -35.1706 -35.1705 -35.1705 -35.1705 -35.1704 -35.1703
   -35.1703 -35.1703 -35.1702 -35.1701 -35.1700 -35.1699 -35.1697 -35.1697
   -35.1696 -35.1696 -35.1694 -35.1694 -35.1692 -35.1692 -35.1691 -35.1689
   -35.1689 -35.1688 -35.1687 -35.1687 -35.1686 -35.1685 -35.1685 -35.1684
   -35.1684 -35.1683 -35.1682 -35.1682 -35.1682 -35.1681 -35.1681 -35.1680
   -35.1680 -35.1678 -35.1677 -35.1676 -35.1673 -35.1672 -35.1670 -35.1663
   -14.2176 -14.2171 -14.2167 -14.2164 -14.2161 -14.2157 -14.2153 -14.2152
   -14.2150 -14.2148 -14.2147 -14.2145 -14.2144 -14.2142 -14.2141 -14.2139
   -14.2137 -14.2132 -14.2121 -14.2118 -14.2116 -14.2112 -14.2111 -14.2109
   -14.2109 -14.2108 -14.2106 -14.2105 -14.2104 -14.2102 -14.2101 -14.2099
   -14.2097 -14.2095 -14.2094 -14.2091 -14.2091 -14.2089 -14.2088 -14.2088
   -14.2087 -14.2086 -14.2083 -14.2082 -14.2080 -14.2080 -14.2079 -14.2078
   -14.2077 -14.2076 -14.2076 -14.2075 -14.2074 -14.2073 -14.2072 -14.2070
   -14.2068 -14.2065 -14.2061 -14.2059 -14.2057 -14.2053 -14.2052 -14.2050
   -14.2045 -14.2043 -14.2042 -14.2038 -14.2037 -14.2032 -14.2027 -14.2022
   -14.1899 -14.1885 -14.1882 -14.1878 -14.1876 -14.1875 -14.1872 -14.1872
   -14.1869 -14.1865 -14.1864 -14.1864 -14.1862 -14.1861 -14.1859 -14.1857
   -14.1857 -14.1855 -14.1854 -14.1852 -14.1851 -14.1850 -14.1848 -14.1845
   -14.1839 -14.1837 -14.1835 -14.1834 -14.1833 -14.1829 -14.1826 -14.1825
   -14.1824 -14.1822 -14.1821 -14.1808 -14.1744 -14.1741 -14.1736 -14.1735
   -14.1733 -14.1730 -14.1728 -14.1727 -14.1724 -14.1723 -14.1722 -14.1721
   -14.1719 -14.1719 -14.1715 -14.1714 -14.1713 -14.1712 -14.1709 -14.1707
   -14.1704 -14.1702 -14.1700 -14.1696 -14.1691 -14.1689 -14.1687 -14.1684
   -14.1679 -14.1672 -14.1670 -14.1668 -14.1666 -14.1662 -14.1660 -14.1655
   -14.1653 -14.1652 -14.1650 -14.1647 -14.1644 -14.1641 -14.1632 -14.1631
   -14.1629 -14.1628 -14.1627 -14.1624 -14.1616 -14.1613 -14.1612 -14.1610
   -14.1605 -14.1603 -14.1591 -14.1589 -14.1588 -14.1586 -14.1585 -14.1584
   -14.1583 -14.1581 -14.1579 -14.1577 -14.1576 -14.1576 -14.1572 -14.1570
   -14.1569 -14.1564 -14.1561 -14.1559  -3.5845  -3.4395  -3.4385  -3.4127
    -3.2797  -3.2785  -3.0799  -3.0786  -2.9681  -2.9624  -2.9603  -2.9025
    -2.8821  -2.8803  -2.8768  -2.8754  -2.8164  -2.8045  -2.8027  -2.7990
    -2.7424  -2.7225  -2.6936  -2.6912  -2.6588  -2.6577  -2.6458  -2.6416
    -2.6353  -2.6287  -2.5775  -2.5700  -2.5678  -2.5586  -2.5569  -2.5508
     3.0497   3.0838   3.1800   3.2115   3.2403   3.2621   3.3183   3.4615
     3.4813   3.5281   3.5292   3.5306   3.5619   3.6039   3.6216   3.6479
     3.6909   3.7025   3.7572   3.8555   3.8859   3.9194   3.9296   3.9769
     3.9779   3.9963   4.0592   4.0714   4.1213   4.1540   4.5998   4.6417
     4.6620   4.6691   4.6759   4.6987   4.7445   4.7513   4.8223   4.8339
     4.9509   4.9597   5.0222   5.1218   5.2361   5.2430   5.2490   5.3212
     5.3437   5.3547   5.3669   5.3793   5.3901   5.4140   5.4733   5.5107
     5.5545   5.7347   5.7371   5.7858   5.7877   5.8655   5.9109   5.9343
     5.9825   6.0235   6.0779   6.0957   6.1136   6.1428   6.1670   6.1877
     6.1918   6.1927   6.2497   6.2533   6.3218   6.3447   6.3622   6.3733
     6.4014   6.4414   6.4505   6.4549   6.7231   6.7727   6.7987   6.8136
     6.8193   6.8486   6.8586   6.8687   6.9572   6.9581   6.9984   7.0292
     7.0315   7.0989   7.1191   7.1213   7.1414   7.2378   7.2999   7.3306
     7.5507   7.5913   7.5966   7.7854   8.3091   8.5837   8.6149   8.6710
     8.8865   8.8942   8.9656   9.1036   9.2167   9.2207   9.3436   9.3581
     9.3587   9.4247   9.5225   9.5735   9.5743   9.5982   9.6569   9.6625
     9.7837   9.7880   9.8814   9.9334   9.9343   9.9544   9.9679  10.0068
    10.0478  10.0620  10.0715  10.2325  10.2411  10.2702  10.2721  10.2808
    10.2858  10.3862  10.4405  10.4480  10.4484  10.4801  10.4849  10.5269
    10.5789  10.6266  10.6608  10.6666  10.7291  10.7435  10.7519  10.7538
    10.7957  10.8335  10.8633  10.9351  11.0027  11.0047  11.0082  11.0915
    11.1777  11.2173  11.2557  11.2713  11.3009  11.3330  11.3479  11.3588
    11.3678  11.3803  11.4174  11.5079  11.5472  11.5623  11.5706  11.5726
    11.6067  11.6081  11.6201  11.6305  11.6448  11.7676  11.8266  11.8293
    11.8403  11.8632  11.8855  11.9040  11.9710  12.1096  12.1174  12.1411
    12.1525  12.1560  12.1580  12.2474  12.2675  12.3480  12.3524  12.3793
    12.3946  12.4218  12.4930  12.5223  12.5656  12.5963  12.5972  12.7027

     occupation numbers 
     1.0000   1.0000   1.0000   1.0000   1.0000   1.0000   1.0000   1.0000
     1.0000   1.0000   1.0000   1.0000   1.0000   1.0000   1.0000   1.0000
     1.0000   1.0000   1.0000   1.0000   1.0000   1.0000   1.0000   1.0000
     1.0000   1.0000   1.0000   1.0000   1.0000   1.0000   1.0000   1.0000
     1.0000   1.0000   1.0000   1.0000   1.0000   1.0000   1.0000   1.0000
     1.0000   1.0000   1.0000   1.0000   1.0000   1.0000   1.0000   1.0000
     1.0000   1.0000   1.0000   1.0000   1.0000   1.0000   1.0000   1.0000
     1.0000   1.0000   1.0000   1.0000   1.0000   1.0000   1.0000   1.0000
     1.0000   1.0000   1.0000   1.0000   1.0000   1.0000   1.0000   1.0000
     1.0000   1.0000   1.0000   1.0000   1.0000   1.0000   1.0000   1.0000
     1.0000   1.0000   1.0000   1.0000   1.0000   1.0000   1.0000   1.0000
     1.0000   1.0000   1.0000   1.0000   1.0000   1.0000   1.0000   1.0000
     1.0000   1.0000   1.0000   1.0000   1.0000   1.0000   1.0000   1.0000
     1.0000   1.0000   1.0000   1.0000   1.0000   1.0000   1.0000   1.0000
     1.0000   1.0000   1.0000   1.0000   1.0000   1.0000   1.0000   1.0000
     1.0000   1.0000   1.0000   1.0000   1.0000   1.0000   1.0000   1.0000
     1.0000   1.0000   1.0000   1.0000   1.0000   1.0000   1.0000   1.0000
     1.0000   1.0000   1.0000   1.0000   1.0000   1.0000   1.0000   1.0000
     1.0000   1.0000   1.0000   1.0000   1.0000   1.0000   1.0000   1.0000
     1.0000   1.0000   1.0000   1.0000   1.0000   1.0000   1.0000   1.0000
     1.0000   1.0000   1.0000   1.0000   1.0000   1.0000   1.0000   1.0000
     1.0000   1.0000   1.0000   1.0000   1.0000   1.0000   1.0000   1.0000
     1.0000   1.0000   1.0000   1.0000   1.0000   1.0000   1.0000   1.0000
     1.0000   1.0000   1.0000   1.0000   1.0000   1.0000   1.0000   1.0000
     1.0000   1.0000   1.0000   1.0000   1.0000   1.0000   1.0000   1.0000
     1.0000   1.0000   1.0000   1.0000   1.0000   1.0000   1.0000   1.0000
     1.0000   1.0000   1.0000   1.0000   1.0000   1.0000   1.0000   1.0000
     1.0000   1.0000   1.0000   1.0000   1.0000   1.0000   1.0000   1.0000
     1.0000   1.0000   1.0000   1.0000   1.0000   1.0000   1.0000   1.0000
     1.0000   1.0000   1.0000   1.0000   1.0000   1.0000   1.0000   1.0000
     1.0000   1.0000   1.0000   1.0000   1.0000   1.0000   1.0000   1.0000
     1.0000   1.0000   1.0000   1.0000   1.0000   1.0000   1.0000   1.0000
     1.0000   1.0000   1.0000   1.0000   1.0000   1.0000   1.0000   1.0000
     1.0000   1.0000   1.0000   1.0000   1.0000   1.0000   1.0000   1.0000
     1.0000   1.0000   1.0000   1.0000   1.0000   1.0000   1.0000   1.0000
     1.0000   1.0000   1.0000   1.0000   1.0000   1.0000   1.0000   1.0000
     1.0000   1.0000   1.0000   1.0000   1.0000   1.0000   1.0000   1.0000
     1.0000   1.0000   1.0000   1.0000   1.0000   1.0000   1.0000   1.0000
     1.0000   1.0000   1.0000   1.0000   1.0000   1.0000   1.0000   1.0000
     1.0000   1.0000   1.0000   1.0000   1.0000   1.0000   1.0000   1.0000
     1.0000   1.0000   1.0000   1.0000   1.0000   1.0000   1.0000   1.0000
     1.0000   1.0000   1.0000   1.0000   1.0000   1.0000   1.0000   1.0000
     1.0000   1.0000   1.0000   1.0000   1.0000   1.0000   1.0000   1.0000
     1.0000   1.0000   1.0000   1.0000   1.0000   1.0000   1.0000   1.0000
     1.0000   1.0000   1.0000   1.0000   1.0000   1.0000   1.0000   1.0000
     1.0000   1.0000   1.0000   1.0000   1.0000   1.0000   1.0000   1.0000
     1.0000   1.0000   1.0000   1.0000   1.0000   1.0000   1.0000   1.0000
     1.0000   1.0000   1.0000   1.0000   1.0000   1.0000   1.0000   1.0000
     1.0000   1.0000   1.0000   1.0000   1.0000   1.0000   1.0000   1.0000
     1.0000   1.0000   1.0000   1.0000   1.0000   1.0000   1.0000   1.0000
     1.0000   1.0000   1.0000   1.0000   1.0000   1.0000   1.0000   1.0000
     1.0000   1.0000   1.0000   1.0000   1.0000   1.0000   1.0000   1.0000
     1.0000   1.0000   1.0000   1.0000   1.0000   1.0000   1.0000   1.0000
     1.0000   1.0000   1.0000   1.0000   1.0000   1.0000   1.0000   1.0000
     1.0000   1.0000   1.0000   1.0000   1.0000   1.0000   1.0000   1.0000
     1.0000   1.0000   1.0000   1.0000   1.0000   1.0000   1.0000   1.0000
     1.0000   1.0000   1.0000   1.0000   1.0000   1.0000   1.0000   1.0000
     1.0000   1.0000   1.0000   1.0000   1.0000   1.0000   1.0000   1.0000
     1.0000   1.0000   1.0000   1.0000   1.0000   1.0000   1.0000   1.0000
     1.0000   1.0000   1.0000   1.0000   1.0000   1.0000   1.0000   1.0000
     1.0000   1.0000   1.0000   1.0000   1.0000   1.0000   1.0000   1.0000
     1.0000   1.0000   1.0000   1.0000   1.0000   1.0000   1.0000   1.0000
     1.0000   1.0000   1.0000   1.0000   1.0000   1.0000   1.0000   1.0000
     1.0000   1.0000   1.0000   1.0000   1.0000   1.0000   1.0000   1.0000
     1.0000   1.0000   1.0000   1.0000   1.0000   1.0000   1.0000   1.0000
     1.0000   1.0000   1.0000   1.0000   1.0000   1.0000   1.0000   1.0000
     1.0000   1.0000   1.0000   1.0000   1.0000   1.0000   1.0000   1.0000
     1.0000   1.0002   1.0003   1.0312  -0.0015  -0.0000  -0.0000  -0.0000
    -0.0000  -0.0000  -0.0000  -0.0000  -0.0000  -0.0000  -0.0000  -0.0000
    -0.0000  -0.0000  -0.0000  -0.0000  -0.0000  -0.0000  -0.0000  -0.0000
    -0.0000  -0.0000  -0.0000  -0.0000  -0.0000  -0.0000  -0.0000  -0.0000
    -0.0000  -0.0000  -0.0000  -0.0000  -0.0000  -0.0000  -0.0000  -0.0000
    -0.0000  -0.0000  -0.0000  -0.0000  -0.0000  -0.0000  -0.0000  -0.0000
    -0.0000  -0.0000  -0.0000  -0.0000  -0.0000  -0.0000  -0.0000  -0.0000
    -0.0000  -0.0000  -0.0000  -0.0000  -0.0000  -0.0000  -0.0000  -0.0000
    -0.0000  -0.0000  -0.0000  -0.0000  -0.0000  -0.0000  -0.0000  -0.0000
    -0.0000  -0.0000  -0.0000  -0.0000  -0.0000  -0.0000  -0.0000  -0.0000
    -0.0000  -0.0000  -0.0000  -0.0000  -0.0000  -0.0000  -0.0000  -0.0000
    -0.0000  -0.0000  -0.0000  -0.0000  -0.0000  -0.0000  -0.0000  -0.0000
    -0.0000  -0.0000  -0.0000  -0.0000  -0.0000  -0.0000  -0.0000  -0.0000
    -0.0000  -0.0000  -0.0000  -0.0000  -0.0000  -0.0000  -0.0000  -0.0000

          k = 0.2500-0.4330-0.2373 (554556 PWs)   bands (ev):

   -68.2851 -68.2849 -68.2848 -68.2848 -68.2846 -68.2846 -68.2846 -68.2846
   -68.2846 -68.2846 -68.2846 -68.2846 -68.2846 -68.2845 -68.2844 -68.2844
   -68.2842 -68.2841 -67.7467 -67.7456 -67.7455 -67.7452 -67.7448 -67.7446
   -67.7446 -67.7445 -67.7444 -67.7444 -67.7443 -67.7443 -67.7442 -67.7441
   -67.7441 -67.7441 -67.7441 -67.7440 -67.7439 -67.7438 -67.7438 -67.7438
   -67.7438 -67.7437 -67.7436 -67.7436 -67.7435 -67.7435 -67.7434 -67.7433
   -67.7433 -67.7431 -67.7428 -67.7424 -67.7423 -67.7412 -35.6961 -35.6960
   -35.6959 -35.6959 -35.6957 -35.6957 -35.6957 -35.6957 -35.6956 -35.6956
   -35.6956 -35.6956 -35.6956 -35.6956 -35.6954 -35.6954 -35.6953 -35.6952
   -35.6912 -35.6912 -35.6911 -35.6911 -35.6910 -35.6910 -35.6910 -35.6909
   -35.6908 -35.6908 -35.6908 -35.6908 -35.6908 -35.6908 -35.6908 -35.6907
   -35.6907 -35.6907 -35.6907 -35.6907 -35.6907 -35.6907 -35.6907 -35.6907
   -35.6907 -35.6907 -35.6906 -35.6906 -35.6905 -35.6905 -35.6905 -35.6905
   -35.6904 -35.6903 -35.6903 -35.6902 -35.1792 -35.1789 -35.1785 -35.1784
   -35.1782 -35.1781 -35.1780 -35.1778 -35.1777 -35.1776 -35.1776 -35.1775
   -35.1774 -35.1774 -35.1774 -35.1773 -35.1773 -35.1772 -35.1772 -35.1771
   -35.1771 -35.1771 -35.1770 -35.1770 -35.1769 -35.1769 -35.1769 -35.1768
   -35.1768 -35.1766 -35.1766 -35.1765 -35.1764 -35.1764 -35.1763 -35.1763
   -35.1762 -35.1761 -35.1760 -35.1760 -35.1759 -35.1757 -35.1757 -35.1754
   -35.1754 -35.1753 -35.1751 -35.1751 -35.1750 -35.1748 -35.1748 -35.1744
   -35.1739 -35.1736 -35.1719 -35.1715 -35.1715 -35.1712 -35.1712 -35.1710
   -35.1708 -35.1707 -35.1706 -35.1705 -35.1705 -35.1705 -35.1704 -35.1703
   -35.1703 -35.1703 -35.1702 -35.1701 -35.1700 -35.1699 -35.1697 -35.1697
   -35.1696 -35.1696 -35.1694 -35.1694 -35.1692 -35.1692 -35.1691 -35.1689
   -35.1689 -35.1688 -35.1687 -35.1687 -35.1686 -35.1685 -35.1685 -35.1684
   -35.1684 -35.1683 -35.1682 -35.1682 -35.1682 -35.1681 -35.1681 -35.1680
   -35.1680 -35.1678 -35.1677 -35.1676 -35.1673 -35.1672 -35.1670 -35.1663
   -14.2176 -14.2172 -14.2166 -14.2164 -14.2162 -14.2157 -14.2153 -14.2152
   -14.2150 -14.2148 -14.2147 -14.2146 -14.2143 -14.2142 -14.2141 -14.2139
   -14.2136 -14.2132 -14.2121 -14.2118 -14.2115 -14.2113 -14.2111 -14.2110
   -14.2108 -14.2108 -14.2106 -14.2105 -14.2104 -14.2103 -14.2101 -14.2099
   -14.2097 -14.2095 -14.2094 -14.2091 -14.2091 -14.2089 -14.2088 -14.2088
   -14.2087 -14.2086 -14.2083 -14.2082 -14.2081 -14.2080 -14.2079 -14.2078
   -14.2077 -14.2076 -14.2076 -14.2075 -14.2074 -14.2072 -14.2072 -14.2071
   -14.2067 -14.2065 -14.2062 -14.2059 -14.2057 -14.2054 -14.2052 -14.2049
   -14.2044 -14.2043 -14.2042 -14.2039 -14.2037 -14.2032 -14.2026 -14.2023
   -14.1899 -14.1885 -14.1882 -14.1878 -14.1876 -14.1875 -14.1872 -14.1872
   -14.1869 -14.1865 -14.1864 -14.1864 -14.1862 -14.1861 -14.1859 -14.1857
   -14.1856 -14.1855 -14.1854 -14.1852 -14.1851 -14.1850 -14.1848 -14.1844
   -14.1839 -14.1837 -14.1835 -14.1834 -14.1833 -14.1829 -14.1826 -14.1825
   -14.1824 -14.1822 -14.1821 -14.1808 -14.1744 -14.1741 -14.1736 -14.1735
   -14.1734 -14.1730 -14.1728 -14.1727 -14.1724 -14.1723 -14.1722 -14.1721
   -14.1720 -14.1719 -14.1715 -14.1714 -14.1713 -14.1712 -14.1709 -14.1707
   -14.1704 -14.1702 -14.1700 -14.1696 -14.1691 -14.1689 -14.1687 -14.1684
   -14.1679 -14.1672 -14.1670 -14.1668 -14.1666 -14.1662 -14.1660 -14.1655
   -14.1653 -14.1652 -14.1650 -14.1647 -14.1644 -14.1641 -14.1632 -14.1631
   -14.1629 -14.1628 -14.1627 -14.1624 -14.1616 -14.1613 -14.1612 -14.1610
   -14.1605 -14.1604 -14.1591 -14.1589 -14.1588 -14.1586 -14.1585 -14.1584
   -14.1583 -14.1580 -14.1579 -14.1577 -14.1576 -14.1576 -14.1572 -14.1570
   -14.1569 -14.1565 -14.1561 -14.1559  -3.5845  -3.4395  -3.4385  -3.4127
    -3.2797  -3.2785  -3.0799  -3.0786  -2.9681  -2.9624  -2.9603  -2.9025
    -2.8821  -2.8803  -2.8768  -2.8754  -2.8164  -2.8045  -2.8026  -2.7990
    -2.7424  -2.7225  -2.6936  -2.6912  -2.6588  -2.6577  -2.6458  -2.6416
    -2.6353  -2.6287  -2.5775  -2.5700  -2.5678  -2.5586  -2.5569  -2.5508
     3.0497   3.0838   3.1800   3.2115   3.2403   3.2621   3.3183   3.4615
     3.4813   3.5282   3.5291   3.5305   3.5619   3.6039   3.6216   3.6479
     3.6909   3.7025   3.7572   3.8555   3.8859   3.9194   3.9296   3.9769
     3.9779   3.9963   4.0592   4.0714   4.1213   4.1540   4.5998   4.6417
     4.6620   4.6691   4.6759   4.6987   4.7445   4.7513   4.8223   4.8339
     4.9509   4.9597   5.0222   5.1218   5.2361   5.2430   5.2490   5.3212
     5.3437   5.3547   5.3669   5.3793   5.3901   5.4140   5.4733   5.5107
     5.5545   5.7347   5.7371   5.7858   5.7877   5.8655   5.9109   5.9343
     5.9825   6.0235   6.0779   6.0957   6.1136   6.1428   6.1670   6.1878
     6.1919   6.1926   6.2496   6.2533   6.3218   6.3447   6.3622   6.3733
     6.4014   6.4414   6.4505   6.4549   6.7231   6.7727   6.7986   6.8136
     6.8193   6.8485   6.8586   6.8687   6.9573   6.9581   6.9984   7.0292
     7.0315   7.0989   7.1191   7.1212   7.1414   7.2378   7.2999   7.3306
     7.5507   7.5913   7.5966   7.7854   8.3091   8.5837   8.6149   8.6710
     8.8865   8.8942   8.9656   9.1036   9.2167   9.2207   9.3436   9.3581
     9.3587   9.4247   9.5225   9.5737   9.5742   9.5982   9.6569   9.6624
     9.7837   9.7880   9.8814   9.9334   9.9343   9.9544   9.9679  10.0068
    10.0479  10.0620  10.0715  10.2325  10.2411  10.2702  10.2721  10.2808
    10.2858  10.3862  10.4405  10.4480  10.4484  10.4801  10.4849  10.5269
    10.5789  10.6266  10.6608  10.6666  10.7291  10.7435  10.7519  10.7538
    10.7957  10.8335  10.8633  10.9351  11.0027  11.0047  11.0082  11.0915
    11.1777  11.2173  11.2557  11.2713  11.3009  11.3330  11.3479  11.3588
    11.3678  11.3803  11.4175  11.5079  11.5472  11.5623  11.5706  11.5725
    11.6067  11.6081  11.6201  11.6305  11.6448  11.7676  11.8266  11.8293
    11.8403  11.8632  11.8855  11.9040  11.9710  12.1096  12.1174  12.1411
    12.1525  12.1560  12.1580  12.2474  12.2675  12.3480  12.3524  12.3793
    12.3946  12.4218  12.4930  12.5224  12.5655  12.5963  12.5972  12.7027

     occupation numbers 
     1.0000   1.0000   1.0000   1.0000   1.0000   1.0000   1.0000   1.0000
     1.0000   1.0000   1.0000   1.0000   1.0000   1.0000   1.0000   1.0000
     1.0000   1.0000   1.0000   1.0000   1.0000   1.0000   1.0000   1.0000
     1.0000   1.0000   1.0000   1.0000   1.0000   1.0000   1.0000   1.0000
     1.0000   1.0000   1.0000   1.0000   1.0000   1.0000   1.0000   1.0000
     1.0000   1.0000   1.0000   1.0000   1.0000   1.0000   1.0000   1.0000
     1.0000   1.0000   1.0000   1.0000   1.0000   1.0000   1.0000   1.0000
     1.0000   1.0000   1.0000   1.0000   1.0000   1.0000   1.0000   1.0000
     1.0000   1.0000   1.0000   1.0000   1.0000   1.0000   1.0000   1.0000
     1.0000   1.0000   1.0000   1.0000   1.0000   1.0000   1.0000   1.0000
     1.0000   1.0000   1.0000   1.0000   1.0000   1.0000   1.0000   1.0000
     1.0000   1.0000   1.0000   1.0000   1.0000   1.0000   1.0000   1.0000
     1.0000   1.0000   1.0000   1.0000   1.0000   1.0000   1.0000   1.0000
     1.0000   1.0000   1.0000   1.0000   1.0000   1.0000   1.0000   1.0000
     1.0000   1.0000   1.0000   1.0000   1.0000   1.0000   1.0000   1.0000
     1.0000   1.0000   1.0000   1.0000   1.0000   1.0000   1.0000   1.0000
     1.0000   1.0000   1.0000   1.0000   1.0000   1.0000   1.0000   1.0000
     1.0000   1.0000   1.0000   1.0000   1.0000   1.0000   1.0000   1.0000
     1.0000   1.0000   1.0000   1.0000   1.0000   1.0000   1.0000   1.0000
     1.0000   1.0000   1.0000   1.0000   1.0000   1.0000   1.0000   1.0000
     1.0000   1.0000   1.0000   1.0000   1.0000   1.0000   1.0000   1.0000
     1.0000   1.0000   1.0000   1.0000   1.0000   1.0000   1.0000   1.0000
     1.0000   1.0000   1.0000   1.0000   1.0000   1.0000   1.0000   1.0000
     1.0000   1.0000   1.0000   1.0000   1.0000   1.0000   1.0000   1.0000
     1.0000   1.0000   1.0000   1.0000   1.0000   1.0000   1.0000   1.0000
     1.0000   1.0000   1.0000   1.0000   1.0000   1.0000   1.0000   1.0000
     1.0000   1.0000   1.0000   1.0000   1.0000   1.0000   1.0000   1.0000
     1.0000   1.0000   1.0000   1.0000   1.0000   1.0000   1.0000   1.0000
     1.0000   1.0000   1.0000   1.0000   1.0000   1.0000   1.0000   1.0000
     1.0000   1.0000   1.0000   1.0000   1.0000   1.0000   1.0000   1.0000
     1.0000   1.0000   1.0000   1.0000   1.0000   1.0000   1.0000   1.0000
     1.0000   1.0000   1.0000   1.0000   1.0000   1.0000   1.0000   1.0000
     1.0000   1.0000   1.0000   1.0000   1.0000   1.0000   1.0000   1.0000
     1.0000   1.0000   1.0000   1.0000   1.0000   1.0000   1.0000   1.0000
     1.0000   1.0000   1.0000   1.0000   1.0000   1.0000   1.0000   1.0000
     1.0000   1.0000   1.0000   1.0000   1.0000   1.0000   1.0000   1.0000
     1.0000   1.0000   1.0000   1.0000   1.0000   1.0000   1.0000   1.0000
     1.0000   1.0000   1.0000   1.0000   1.0000   1.0000   1.0000   1.0000
     1.0000   1.0000   1.0000   1.0000   1.0000   1.0000   1.0000   1.0000
     1.0000   1.0000   1.0000   1.0000   1.0000   1.0000   1.0000   1.0000
     1.0000   1.0000   1.0000   1.0000   1.0000   1.0000   1.0000   1.0000
     1.0000   1.0000   1.0000   1.0000   1.0000   1.0000   1.0000   1.0000
     1.0000   1.0000   1.0000   1.0000   1.0000   1.0000   1.0000   1.0000
     1.0000   1.0000   1.0000   1.0000   1.0000   1.0000   1.0000   1.0000
     1.0000   1.0000   1.0000   1.0000   1.0000   1.0000   1.0000   1.0000
     1.0000   1.0000   1.0000   1.0000   1.0000   1.0000   1.0000   1.0000
     1.0000   1.0000   1.0000   1.0000   1.0000   1.0000   1.0000   1.0000
     1.0000   1.0000   1.0000   1.0000   1.0000   1.0000   1.0000   1.0000
     1.0000   1.0000   1.0000   1.0000   1.0000   1.0000   1.0000   1.0000
     1.0000   1.0000   1.0000   1.0000   1.0000   1.0000   1.0000   1.0000
     1.0000   1.0000   1.0000   1.0000   1.0000   1.0000   1.0000   1.0000
     1.0000   1.0000   1.0000   1.0000   1.0000   1.0000   1.0000   1.0000
     1.0000   1.0000   1.0000   1.0000   1.0000   1.0000   1.0000   1.0000
     1.0000   1.0000   1.0000   1.0000   1.0000   1.0000   1.0000   1.0000
     1.0000   1.0000   1.0000   1.0000   1.0000   1.0000   1.0000   1.0000
     1.0000   1.0000   1.0000   1.0000   1.0000   1.0000   1.0000   1.0000
     1.0000   1.0000   1.0000   1.0000   1.0000   1.0000   1.0000   1.0000
     1.0000   1.0000   1.0000   1.0000   1.0000   1.0000   1.0000   1.0000
     1.0000   1.0000   1.0000   1.0000   1.0000   1.0000   1.0000   1.0000
     1.0000   1.0000   1.0000   1.0000   1.0000   1.0000   1.0000   1.0000
     1.0000   1.0000   1.0000   1.0000   1.0000   1.0000   1.0000   1.0000
     1.0000   1.0000   1.0000   1.0000   1.0000   1.0000   1.0000   1.0000
     1.0000   1.0000   1.0000   1.0000   1.0000   1.0000   1.0000   1.0000
     1.0000   1.0000   1.0000   1.0000   1.0000   1.0000   1.0000   1.0000
     1.0000   1.0000   1.0000   1.0000   1.0000   1.0000   1.0000   1.0000
     1.0000   1.0000   1.0000   1.0000   1.0000   1.0000   1.0000   1.0000
     1.0000   1.0000   1.0000   1.0000   1.0000   1.0000   1.0000   1.0000
     1.0000   1.0002   1.0003   1.0312  -0.0015  -0.0000  -0.0000  -0.0000
    -0.0000  -0.0000  -0.0000  -0.0000  -0.0000  -0.0000  -0.0000  -0.0000
    -0.0000  -0.0000  -0.0000  -0.0000  -0.0000  -0.0000  -0.0000  -0.0000
    -0.0000  -0.0000  -0.0000  -0.0000  -0.0000  -0.0000  -0.0000  -0.0000
    -0.0000  -0.0000  -0.0000  -0.0000  -0.0000  -0.0000  -0.0000  -0.0000
    -0.0000  -0.0000  -0.0000  -0.0000  -0.0000  -0.0000  -0.0000  -0.0000
    -0.0000  -0.0000  -0.0000  -0.0000  -0.0000  -0.0000  -0.0000  -0.0000
    -0.0000  -0.0000  -0.0000  -0.0000  -0.0000  -0.0000  -0.0000  -0.0000
    -0.0000  -0.0000  -0.0000  -0.0000  -0.0000  -0.0000  -0.0000  -0.0000
    -0.0000  -0.0000  -0.0000  -0.0000  -0.0000  -0.0000  -0.0000  -0.0000
    -0.0000  -0.0000  -0.0000  -0.0000  -0.0000  -0.0000  -0.0000  -0.0000
    -0.0000  -0.0000  -0.0000  -0.0000  -0.0000  -0.0000  -0.0000  -0.0000
    -0.0000  -0.0000  -0.0000  -0.0000  -0.0000  -0.0000  -0.0000  -0.0000
    -0.0000  -0.0000  -0.0000  -0.0000  -0.0000  -0.0000  -0.0000  -0.0000

          k = 0.5000 0.0000 0.2373 (554556 PWs)   bands (ev):

   -68.2851 -68.2849 -68.2848 -68.2848 -68.2846 -68.2846 -68.2846 -68.2846
   -68.2846 -68.2846 -68.2846 -68.2846 -68.2846 -68.2845 -68.2844 -68.2844
   -68.2842 -68.2841 -67.7467 -67.7456 -67.7455 -67.7452 -67.7448 -67.7446
   -67.7446 -67.7445 -67.7444 -67.7444 -67.7443 -67.7443 -67.7442 -67.7441
   -67.7441 -67.7441 -67.7441 -67.7440 -67.7439 -67.7439 -67.7438 -67.7438
   -67.7438 -67.7437 -67.7436 -67.7436 -67.7435 -67.7435 -67.7434 -67.7433
   -67.7433 -67.7431 -67.7428 -67.7424 -67.7423 -67.7412 -35.6961 -35.6960
   -35.6959 -35.6959 -35.6957 -35.6957 -35.6957 -35.6957 -35.6956 -35.6956
   -35.6956 -35.6956 -35.6956 -35.6956 -35.6954 -35.6954 -35.6953 -35.6952
   -35.6912 -35.6912 -35.6911 -35.6911 -35.6910 -35.6910 -35.6910 -35.6909
   -35.6908 -35.6908 -35.6908 -35.6908 -35.6908 -35.6908 -35.6907 -35.6907
   -35.6907 -35.6907 -35.6907 -35.6907 -35.6907 -35.6907 -35.6907 -35.6907
   -35.6907 -35.6907 -35.6906 -35.6906 -35.6905 -35.6905 -35.6905 -35.6905
   -35.6904 -35.6903 -35.6903 -35.6902 -35.1792 -35.1789 -35.1784 -35.1783
   -35.1782 -35.1781 -35.1779 -35.1778 -35.1777 -35.1776 -35.1775 -35.1775
   -35.1774 -35.1774 -35.1773 -35.1773 -35.1773 -35.1772 -35.1772 -35.1772
   -35.1771 -35.1771 -35.1771 -35.1770 -35.1770 -35.1769 -35.1768 -35.1768
   -35.1767 -35.1766 -35.1765 -35.1765 -35.1764 -35.1764 -35.1763 -35.1763
   -35.1762 -35.1761 -35.1761 -35.1761 -35.1759 -35.1757 -35.1756 -35.1755
   -35.1753 -35.1753 -35.1752 -35.1751 -35.1750 -35.1748 -35.1747 -35.1743
   -35.1741 -35.1736 -35.1720 -35.1715 -35.1714 -35.1712 -35.1711 -35.1710
   -35.1709 -35.1707 -35.1706 -35.1706 -35.1705 -35.1705 -35.1704 -35.1704
   -35.1704 -35.1702 -35.1701 -35.1700 -35.1700 -35.1698 -35.1697 -35.1697
   -35.1696 -35.1696 -35.1694 -35.1693 -35.1692 -35.1692 -35.1691 -35.1690
   -35.1690 -35.1689 -35.1687 -35.1687 -35.1686 -35.1686 -35.1685 -35.1684
   -35.1683 -35.1683 -35.1682 -35.1682 -35.1682 -35.1681 -35.1681 -35.1680
   -35.1680 -35.1678 -35.1677 -35.1676 -35.1673 -35.1672 -35.1669 -35.1663
   -14.2176 -14.2172 -14.2166 -14.2165 -14.2161 -14.2156 -14.2154 -14.2152
   -14.2149 -14.2148 -14.2147 -14.2146 -14.2145 -14.2142 -14.2141 -14.2138
   -14.2136 -14.2131 -14.2123 -14.2117 -14.2116 -14.2112 -14.2111 -14.2110
   -14.2108 -14.2107 -14.2106 -14.2105 -14.2104 -14.2103 -14.2102 -14.2099
   -14.2097 -14.2096 -14.2094 -14.2092 -14.2091 -14.2089 -14.2088 -14.2087
   -14.2086 -14.2085 -14.2083 -14.2082 -14.2080 -14.2079 -14.2079 -14.2078
   -14.2078 -14.2076 -14.2076 -14.2075 -14.2074 -14.2072 -14.2071 -14.2069
   -14.2068 -14.2067 -14.2063 -14.2060 -14.2057 -14.2054 -14.2051 -14.2048
   -14.2047 -14.2044 -14.2041 -14.2039 -14.2036 -14.2031 -14.2026 -14.2023
   -14.1900 -14.1884 -14.1882 -14.1879 -14.1876 -14.1874 -14.1873 -14.1871
   -14.1869 -14.1866 -14.1864 -14.1863 -14.1862 -14.1861 -14.1860 -14.1858
   -14.1856 -14.1855 -14.1854 -14.1851 -14.1850 -14.1849 -14.1847 -14.1845
   -14.1838 -14.1837 -14.1836 -14.1835 -14.1833 -14.1829 -14.1826 -14.1825
   -14.1824 -14.1822 -14.1821 -14.1808 -14.1744 -14.1741 -14.1736 -14.1735
   -14.1731 -14.1730 -14.1728 -14.1727 -14.1725 -14.1723 -14.1722 -14.1721
   -14.1720 -14.1718 -14.1717 -14.1715 -14.1713 -14.1712 -14.1708 -14.1707
   -14.1704 -14.1703 -14.1698 -14.1697 -14.1691 -14.1689 -14.1687 -14.1684
   -14.1676 -14.1673 -14.1671 -14.1668 -14.1666 -14.1663 -14.1660 -14.1654
   -14.1654 -14.1653 -14.1650 -14.1646 -14.1645 -14.1641 -14.1632 -14.1631
   -14.1630 -14.1628 -14.1626 -14.1624 -14.1614 -14.1613 -14.1611 -14.1611
   -14.1604 -14.1603 -14.1594 -14.1590 -14.1587 -14.1586 -14.1584 -14.1583
   -14.1582 -14.1581 -14.1580 -14.1577 -14.1576 -14.1574 -14.1572 -14.1571
   -14.1568 -14.1566 -14.1561 -14.1558  -3.5845  -3.4392  -3.4388  -3.4127
    -3.2795  -3.2787  -3.0797  -3.0788  -2.9681  -2.9623  -2.9604  -2.9025
    -2.8821  -2.8804  -2.8767  -2.8755  -2.8163  -2.8045  -2.8027  -2.7990
    -2.7424  -2.7225  -2.6935  -2.6912  -2.6586  -2.6579  -2.6458  -2.6416
    -2.6353  -2.6287  -2.5775  -2.5700  -2.5678  -2.5584  -2.5571  -2.5507
     3.0497   3.0838   3.1800   3.2115   3.2403   3.2621   3.3183   3.4615
     3.4813   3.5279   3.5293   3.5306   3.5619   3.6039   3.6215   3.6479
     3.6909   3.7025   3.7572   3.8555   3.8859   3.9194   3.9296   3.9769
     3.9779   3.9963   4.0592   4.0714   4.1213   4.1540   4.5998   4.6417
     4.6620   4.6691   4.6759   4.6987   4.7445   4.7513   4.8223   4.8339
     4.9509   4.9597   5.0222   5.1218   5.2361   5.2430   5.2490   5.3212
     5.3437   5.3547   5.3669   5.3793   5.3901   5.4140   5.4733   5.5107
     5.5545   5.7347   5.7371   5.7858   5.7877   5.8655   5.9109   5.9343
     5.9825   6.0235   6.0779   6.0957   6.1136   6.1428   6.1670   6.1877
     6.1918   6.1927   6.2497   6.2533   6.3218   6.3447   6.3622   6.3733
     6.4014   6.4415   6.4505   6.4549   6.7231   6.7727   6.7987   6.8136
     6.8193   6.8486   6.8586   6.8686   6.9574   6.9579   6.9984   7.0292
     7.0315   7.0989   7.1191   7.1212   7.1414   7.2378   7.2999   7.3306
     7.5507   7.5913   7.5966   7.7854   8.3091   8.5837   8.6149   8.6710
     8.8865   8.8942   8.9656   9.1036   9.2167   9.2207   9.3436   9.3581
     9.3587   9.4247   9.5225   9.5733   9.5745   9.5982   9.6569   9.6625
     9.7837   9.7880   9.8814   9.9334   9.9343   9.9544   9.9679  10.0068
    10.0479  10.0620  10.0715  10.2325  10.2411  10.2702  10.2721  10.2808
    10.2858  10.3862  10.4405  10.4479  10.4484  10.4801  10.4849  10.5269
    10.5789  10.6266  10.6608  10.6666  10.7291  10.7435  10.7519  10.7538
    10.7957  10.8335  10.8633  10.9351  11.0027  11.0047  11.0082  11.0915
    11.1777  11.2173  11.2557  11.2713  11.3009  11.3330  11.3479  11.3588
    11.3678  11.3803  11.4174  11.5079  11.5472  11.5623  11.5706  11.5726
    11.6067  11.6081  11.6201  11.6305  11.6448  11.7676  11.8266  11.8293
    11.8403  11.8632  11.8854  11.9040  11.9710  12.1096  12.1174  12.1411
    12.1525  12.1560  12.1580  12.2474  12.2675  12.3480  12.3524  12.3793
    12.3946  12.4218  12.4930  12.5224  12.5656  12.5963  12.5972  12.7028

     occupation numbers 
     1.0000   1.0000   1.0000   1.0000   1.0000   1.0000   1.0000   1.0000
     1.0000   1.0000   1.0000   1.0000   1.0000   1.0000   1.0000   1.0000
     1.0000   1.0000   1.0000   1.0000   1.0000   1.0000   1.0000   1.0000
     1.0000   1.0000   1.0000   1.0000   1.0000   1.0000   1.0000   1.0000
     1.0000   1.0000   1.0000   1.0000   1.0000   1.0000   1.0000   1.0000
     1.0000   1.0000   1.0000   1.0000   1.0000   1.0000   1.0000   1.0000
     1.0000   1.0000   1.0000   1.0000   1.0000   1.0000   1.0000   1.0000
     1.0000   1.0000   1.0000   1.0000   1.0000   1.0000   1.0000   1.0000
     1.0000   1.0000   1.0000   1.0000   1.0000   1.0000   1.0000   1.0000
     1.0000   1.0000   1.0000   1.0000   1.0000   1.0000   1.0000   1.0000
     1.0000   1.0000   1.0000   1.0000   1.0000   1.0000   1.0000   1.0000
     1.0000   1.0000   1.0000   1.0000   1.0000   1.0000   1.0000   1.0000
     1.0000   1.0000   1.0000   1.0000   1.0000   1.0000   1.0000   1.0000
     1.0000   1.0000   1.0000   1.0000   1.0000   1.0000   1.0000   1.0000
     1.0000   1.0000   1.0000   1.0000   1.0000   1.0000   1.0000   1.0000
     1.0000   1.0000   1.0000   1.0000   1.0000   1.0000   1.0000   1.0000
     1.0000   1.0000   1.0000   1.0000   1.0000   1.0000   1.0000   1.0000
     1.0000   1.0000   1.0000   1.0000   1.0000   1.0000   1.0000   1.0000
     1.0000   1.0000   1.0000   1.0000   1.0000   1.0000   1.0000   1.0000
     1.0000   1.0000   1.0000   1.0000   1.0000   1.0000   1.0000   1.0000
     1.0000   1.0000   1.0000   1.0000   1.0000   1.0000   1.0000   1.0000
     1.0000   1.0000   1.0000   1.0000   1.0000   1.0000   1.0000   1.0000
     1.0000   1.0000   1.0000   1.0000   1.0000   1.0000   1.0000   1.0000
     1.0000   1.0000   1.0000   1.0000   1.0000   1.0000   1.0000   1.0000
     1.0000   1.0000   1.0000   1.0000   1.0000   1.0000   1.0000   1.0000
     1.0000   1.0000   1.0000   1.0000   1.0000   1.0000   1.0000   1.0000
     1.0000   1.0000   1.0000   1.0000   1.0000   1.0000   1.0000   1.0000
     1.0000   1.0000   1.0000   1.0000   1.0000   1.0000   1.0000   1.0000
     1.0000   1.0000   1.0000   1.0000   1.0000   1.0000   1.0000   1.0000
     1.0000   1.0000   1.0000   1.0000   1.0000   1.0000   1.0000   1.0000
     1.0000   1.0000   1.0000   1.0000   1.0000   1.0000   1.0000   1.0000
     1.0000   1.0000   1.0000   1.0000   1.0000   1.0000   1.0000   1.0000
     1.0000   1.0000   1.0000   1.0000   1.0000   1.0000   1.0000   1.0000
     1.0000   1.0000   1.0000   1.0000   1.0000   1.0000   1.0000   1.0000
     1.0000   1.0000   1.0000   1.0000   1.0000   1.0000   1.0000   1.0000
     1.0000   1.0000   1.0000   1.0000   1.0000   1.0000   1.0000   1.0000
     1.0000   1.0000   1.0000   1.0000   1.0000   1.0000   1.0000   1.0000
     1.0000   1.0000   1.0000   1.0000   1.0000   1.0000   1.0000   1.0000
     1.0000   1.0000   1.0000   1.0000   1.0000   1.0000   1.0000   1.0000
     1.0000   1.0000   1.0000   1.0000   1.0000   1.0000   1.0000   1.0000
     1.0000   1.0000   1.0000   1.0000   1.0000   1.0000   1.0000   1.0000
     1.0000   1.0000   1.0000   1.0000   1.0000   1.0000   1.0000   1.0000
     1.0000   1.0000   1.0000   1.0000   1.0000   1.0000   1.0000   1.0000
     1.0000   1.0000   1.0000   1.0000   1.0000   1.0000   1.0000   1.0000
     1.0000   1.0000   1.0000   1.0000   1.0000   1.0000   1.0000   1.0000
     1.0000   1.0000   1.0000   1.0000   1.0000   1.0000   1.0000   1.0000
     1.0000   1.0000   1.0000   1.0000   1.0000   1.0000   1.0000   1.0000
     1.0000   1.0000   1.0000   1.0000   1.0000   1.0000   1.0000   1.0000
     1.0000   1.0000   1.0000   1.0000   1.0000   1.0000   1.0000   1.0000
     1.0000   1.0000   1.0000   1.0000   1.0000   1.0000   1.0000   1.0000
     1.0000   1.0000   1.0000   1.0000   1.0000   1.0000   1.0000   1.0000
     1.0000   1.0000   1.0000   1.0000   1.0000   1.0000   1.0000   1.0000
     1.0000   1.0000   1.0000   1.0000   1.0000   1.0000   1.0000   1.0000
     1.0000   1.0000   1.0000   1.0000   1.0000   1.0000   1.0000   1.0000
     1.0000   1.0000   1.0000   1.0000   1.0000   1.0000   1.0000   1.0000
     1.0000   1.0000   1.0000   1.0000   1.0000   1.0000   1.0000   1.0000
     1.0000   1.0000   1.0000   1.0000   1.0000   1.0000   1.0000   1.0000
     1.0000   1.0000   1.0000   1.0000   1.0000   1.0000   1.0000   1.0000
     1.0000   1.0000   1.0000   1.0000   1.0000   1.0000   1.0000   1.0000
     1.0000   1.0000   1.0000   1.0000   1.0000   1.0000   1.0000   1.0000
     1.0000   1.0000   1.0000   1.0000   1.0000   1.0000   1.0000   1.0000
     1.0000   1.0000   1.0000   1.0000   1.0000   1.0000   1.0000   1.0000
     1.0000   1.0000   1.0000   1.0000   1.0000   1.0000   1.0000   1.0000
     1.0000   1.0000   1.0000   1.0000   1.0000   1.0000   1.0000   1.0000
     1.0000   1.0000   1.0000   1.0000   1.0000   1.0000   1.0000   1.0000
     1.0000   1.0000   1.0000   1.0000   1.0000   1.0000   1.0000   1.0000
     1.0000   1.0000   1.0000   1.0000   1.0000   1.0000   1.0000   1.0000
     1.0000   1.0002   1.0003   1.0312  -0.0015  -0.0000  -0.0000  -0.0000
    -0.0000  -0.0000  -0.0000  -0.0000  -0.0000  -0.0000  -0.0000  -0.0000
    -0.0000  -0.0000  -0.0000  -0.0000  -0.0000  -0.0000  -0.0000  -0.0000
    -0.0000  -0.0000  -0.0000  -0.0000  -0.0000  -0.0000  -0.0000  -0.0000
    -0.0000  -0.0000  -0.0000  -0.0000  -0.0000  -0.0000  -0.0000  -0.0000
    -0.0000  -0.0000  -0.0000  -0.0000  -0.0000  -0.0000  -0.0000  -0.0000
    -0.0000  -0.0000  -0.0000  -0.0000  -0.0000  -0.0000  -0.0000  -0.0000
    -0.0000  -0.0000  -0.0000  -0.0000  -0.0000  -0.0000  -0.0000  -0.0000
    -0.0000  -0.0000  -0.0000  -0.0000  -0.0000  -0.0000  -0.0000  -0.0000
    -0.0000  -0.0000  -0.0000  -0.0000  -0.0000  -0.0000  -0.0000  -0.0000
    -0.0000  -0.0000  -0.0000  -0.0000  -0.0000  -0.0000  -0.0000  -0.0000
    -0.0000  -0.0000  -0.0000  -0.0000  -0.0000  -0.0000  -0.0000  -0.0000
    -0.0000  -0.0000  -0.0000  -0.0000  -0.0000  -0.0000  -0.0000  -0.0000
    -0.0000  -0.0000  -0.0000  -0.0000  -0.0000  -0.0000  -0.0000  -0.0000

          k =-0.5000-0.0000 0.2373 (554556 PWs)   bands (ev):

   -68.2851 -68.2849 -68.2848 -68.2848 -68.2846 -68.2846 -68.2846 -68.2846
   -68.2846 -68.2846 -68.2846 -68.2846 -68.2846 -68.2845 -68.2844 -68.2844
   -68.2842 -68.2841 -67.7467 -67.7456 -67.7455 -67.7452 -67.7448 -67.7446
   -67.7446 -67.7445 -67.7444 -67.7444 -67.7443 -67.7443 -67.7442 -67.7441
   -67.7441 -67.7441 -67.7441 -67.7440 -67.7439 -67.7439 -67.7438 -67.7438
   -67.7438 -67.7437 -67.7436 -67.7436 -67.7435 -67.7435 -67.7434 -67.7433
   -67.7433 -67.7431 -67.7428 -67.7424 -67.7423 -67.7412 -35.6961 -35.6960
   -35.6959 -35.6959 -35.6957 -35.6957 -35.6957 -35.6957 -35.6956 -35.6956
   -35.6956 -35.6956 -35.6956 -35.6956 -35.6954 -35.6954 -35.6953 -35.6952
   -35.6912 -35.6912 -35.6911 -35.6911 -35.6910 -35.6910 -35.6910 -35.6909
   -35.6908 -35.6908 -35.6908 -35.6908 -35.6908 -35.6908 -35.6907 -35.6907
   -35.6907 -35.6907 -35.6907 -35.6907 -35.6907 -35.6907 -35.6907 -35.6907
   -35.6907 -35.6907 -35.6906 -35.6906 -35.6905 -35.6905 -35.6905 -35.6905
   -35.6904 -35.6903 -35.6903 -35.6902 -35.1792 -35.1789 -35.1784 -35.1783
   -35.1782 -35.1781 -35.1779 -35.1778 -35.1777 -35.1776 -35.1775 -35.1775
   -35.1774 -35.1774 -35.1773 -35.1773 -35.1773 -35.1772 -35.1772 -35.1772
   -35.1771 -35.1771 -35.1771 -35.1770 -35.1770 -35.1769 -35.1768 -35.1768
   -35.1767 -35.1766 -35.1765 -35.1765 -35.1764 -35.1764 -35.1763 -35.1763
   -35.1762 -35.1761 -35.1761 -35.1761 -35.1759 -35.1757 -35.1756 -35.1755
   -35.1753 -35.1753 -35.1752 -35.1751 -35.1750 -35.1748 -35.1747 -35.1743
   -35.1741 -35.1736 -35.1720 -35.1715 -35.1714 -35.1712 -35.1711 -35.1710
   -35.1709 -35.1707 -35.1706 -35.1706 -35.1705 -35.1705 -35.1704 -35.1704
   -35.1704 -35.1702 -35.1701 -35.1700 -35.1700 -35.1698 -35.1697 -35.1697
   -35.1696 -35.1696 -35.1694 -35.1693 -35.1692 -35.1692 -35.1691 -35.1690
   -35.1690 -35.1689 -35.1687 -35.1687 -35.1686 -35.1686 -35.1685 -35.1684
   -35.1683 -35.1683 -35.1682 -35.1682 -35.1682 -35.1681 -35.1681 -35.1680
   -35.1680 -35.1678 -35.1677 -35.1676 -35.1673 -35.1672 -35.1669 -35.1663
   -14.2176 -14.2172 -14.2166 -14.2164 -14.2162 -14.2156 -14.2153 -14.2152
   -14.2150 -14.2149 -14.2147 -14.2146 -14.2145 -14.2142 -14.2140 -14.2139
   -14.2137 -14.2130 -14.2123 -14.2118 -14.2116 -14.2113 -14.2111 -14.2109
   -14.2108 -14.2107 -14.2106 -14.2105 -14.2105 -14.2102 -14.2101 -14.2100
   -14.2097 -14.2095 -14.2094 -14.2093 -14.2091 -14.2089 -14.2088 -14.2087
   -14.2086 -14.2085 -14.2083 -14.2082 -14.2081 -14.2079 -14.2078 -14.2077
   -14.2077 -14.2077 -14.2075 -14.2075 -14.2074 -14.2073 -14.2072 -14.2069
   -14.2067 -14.2066 -14.2063 -14.2059 -14.2057 -14.2054 -14.2050 -14.2049
   -14.2046 -14.2043 -14.2041 -14.2039 -14.2036 -14.2032 -14.2026 -14.2023
   -14.1900 -14.1884 -14.1882 -14.1879 -14.1877 -14.1874 -14.1873 -14.1870
   -14.1870 -14.1866 -14.1865 -14.1863 -14.1862 -14.1861 -14.1860 -14.1858
   -14.1856 -14.1855 -14.1854 -14.1851 -14.1851 -14.1849 -14.1847 -14.1845
   -14.1838 -14.1837 -14.1836 -14.1835 -14.1833 -14.1829 -14.1826 -14.1825
   -14.1824 -14.1822 -14.1821 -14.1808 -14.1744 -14.1741 -14.1736 -14.1735
   -14.1731 -14.1730 -14.1728 -14.1726 -14.1725 -14.1724 -14.1722 -14.1720
   -14.1720 -14.1718 -14.1717 -14.1715 -14.1713 -14.1711 -14.1709 -14.1707
   -14.1704 -14.1703 -14.1698 -14.1696 -14.1691 -14.1689 -14.1687 -14.1684
   -14.1676 -14.1672 -14.1671 -14.1668 -14.1667 -14.1664 -14.1659 -14.1654
   -14.1654 -14.1652 -14.1650 -14.1647 -14.1644 -14.1641 -14.1633 -14.1630
   -14.1630 -14.1628 -14.1627 -14.1623 -14.1614 -14.1614 -14.1611 -14.1611
   -14.1604 -14.1602 -14.1593 -14.1590 -14.1588 -14.1585 -14.1584 -14.1583
   -14.1582 -14.1581 -14.1580 -14.1578 -14.1576 -14.1574 -14.1572 -14.1571
   -14.1568 -14.1566 -14.1562 -14.1557  -3.5845  -3.4392  -3.4388  -3.4127
    -3.2795  -3.2787  -3.0797  -3.0788  -2.9681  -2.9623  -2.9604  -2.9025
    -2.8820  -2.8803  -2.8767  -2.8755  -2.8163  -2.8046  -2.8026  -2.7990
    -2.7424  -2.7225  -2.6935  -2.6912  -2.6586  -2.6579  -2.6458  -2.6416
    -2.6353  -2.6287  -2.5775  -2.5700  -2.5678  -2.5585  -2.5571  -2.5507
     3.0497   3.0838   3.1800   3.2115   3.2403   3.2621   3.3183   3.4615
     3.4813   3.5282   3.5291   3.5305   3.5619   3.6039   3.6215   3.6479
     3.6909   3.7025   3.7572   3.8555   3.8859   3.9194   3.9296   3.9769
     3.9779   3.9963   4.0592   4.0714   4.1213   4.1540   4.5998   4.6417
     4.6620   4.6691   4.6759   4.6987   4.7445   4.7513   4.8223   4.8339
     4.9509   4.9597   5.0222   5.1218   5.2361   5.2430   5.2490   5.3212
     5.3437   5.3547   5.3669   5.3793   5.3901   5.4140   5.4733   5.5107
     5.5545   5.7347   5.7371   5.7858   5.7877   5.8655   5.9109   5.9343
     5.9825   6.0235   6.0779   6.0957   6.1136   6.1428   6.1670   6.1878
     6.1918   6.1926   6.2496   6.2533   6.3218   6.3447   6.3622   6.3733
     6.4014   6.4415   6.4505   6.4549   6.7231   6.7727   6.7986   6.8136
     6.8193   6.8485   6.8586   6.8686   6.9574   6.9579   6.9984   7.0292
     7.0315   7.0989   7.1191   7.1212   7.1414   7.2378   7.2999   7.3306
     7.5507   7.5914   7.5966   7.7854   8.3091   8.5837   8.6149   8.6710
     8.8865   8.8942   8.9656   9.1036   9.2167   9.2207   9.3436   9.3581
     9.3587   9.4247   9.5225   9.5737   9.5742   9.5982   9.6569   9.6624
     9.7837   9.7880   9.8814   9.9334   9.9343   9.9544   9.9679  10.0068
    10.0479  10.0620  10.0715  10.2325  10.2411  10.2702  10.2721  10.2808
    10.2858  10.3862  10.4405  10.4479  10.4485  10.4801  10.4849  10.5269
    10.5789  10.6266  10.6608  10.6666  10.7291  10.7435  10.7519  10.7538
    10.7957  10.8335  10.8633  10.9351  11.0027  11.0047  11.0082  11.0915
    11.1777  11.2173  11.2557  11.2713  11.3009  11.3330  11.3479  11.3588
    11.3678  11.3803  11.4174  11.5079  11.5472  11.5623  11.5706  11.5725
    11.6067  11.6082  11.6201  11.6305  11.6448  11.7676  11.8267  11.8293
    11.8403  11.8632  11.8855  11.9040  11.9710  12.1096  12.1174  12.1411
    12.1525  12.1560  12.1580  12.2474  12.2675  12.3480  12.3524  12.3793
    12.3946  12.4218  12.4930  12.5224  12.5656  12.5963  12.5972  12.7028

     occupation numbers 
     1.0000   1.0000   1.0000   1.0000   1.0000   1.0000   1.0000   1.0000
     1.0000   1.0000   1.0000   1.0000   1.0000   1.0000   1.0000   1.0000
     1.0000   1.0000   1.0000   1.0000   1.0000   1.0000   1.0000   1.0000
     1.0000   1.0000   1.0000   1.0000   1.0000   1.0000   1.0000   1.0000
     1.0000   1.0000   1.0000   1.0000   1.0000   1.0000   1.0000   1.0000
     1.0000   1.0000   1.0000   1.0000   1.0000   1.0000   1.0000   1.0000
     1.0000   1.0000   1.0000   1.0000   1.0000   1.0000   1.0000   1.0000
     1.0000   1.0000   1.0000   1.0000   1.0000   1.0000   1.0000   1.0000
     1.0000   1.0000   1.0000   1.0000   1.0000   1.0000   1.0000   1.0000
     1.0000   1.0000   1.0000   1.0000   1.0000   1.0000   1.0000   1.0000
     1.0000   1.0000   1.0000   1.0000   1.0000   1.0000   1.0000   1.0000
     1.0000   1.0000   1.0000   1.0000   1.0000   1.0000   1.0000   1.0000
     1.0000   1.0000   1.0000   1.0000   1.0000   1.0000   1.0000   1.0000
     1.0000   1.0000   1.0000   1.0000   1.0000   1.0000   1.0000   1.0000
     1.0000   1.0000   1.0000   1.0000   1.0000   1.0000   1.0000   1.0000
     1.0000   1.0000   1.0000   1.0000   1.0000   1.0000   1.0000   1.0000
     1.0000   1.0000   1.0000   1.0000   1.0000   1.0000   1.0000   1.0000
     1.0000   1.0000   1.0000   1.0000   1.0000   1.0000   1.0000   1.0000
     1.0000   1.0000   1.0000   1.0000   1.0000   1.0000   1.0000   1.0000
     1.0000   1.0000   1.0000   1.0000   1.0000   1.0000   1.0000   1.0000
     1.0000   1.0000   1.0000   1.0000   1.0000   1.0000   1.0000   1.0000
     1.0000   1.0000   1.0000   1.0000   1.0000   1.0000   1.0000   1.0000
     1.0000   1.0000   1.0000   1.0000   1.0000   1.0000   1.0000   1.0000
     1.0000   1.0000   1.0000   1.0000   1.0000   1.0000   1.0000   1.0000
     1.0000   1.0000   1.0000   1.0000   1.0000   1.0000   1.0000   1.0000
     1.0000   1.0000   1.0000   1.0000   1.0000   1.0000   1.0000   1.0000
     1.0000   1.0000   1.0000   1.0000   1.0000   1.0000   1.0000   1.0000
     1.0000   1.0000   1.0000   1.0000   1.0000   1.0000   1.0000   1.0000
     1.0000   1.0000   1.0000   1.0000   1.0000   1.0000   1.0000   1.0000
     1.0000   1.0000   1.0000   1.0000   1.0000   1.0000   1.0000   1.0000
     1.0000   1.0000   1.0000   1.0000   1.0000   1.0000   1.0000   1.0000
     1.0000   1.0000   1.0000   1.0000   1.0000   1.0000   1.0000   1.0000
     1.0000   1.0000   1.0000   1.0000   1.0000   1.0000   1.0000   1.0000
     1.0000   1.0000   1.0000   1.0000   1.0000   1.0000   1.0000   1.0000
     1.0000   1.0000   1.0000   1.0000   1.0000   1.0000   1.0000   1.0000
     1.0000   1.0000   1.0000   1.0000   1.0000   1.0000   1.0000   1.0000
     1.0000   1.0000   1.0000   1.0000   1.0000   1.0000   1.0000   1.0000
     1.0000   1.0000   1.0000   1.0000   1.0000   1.0000   1.0000   1.0000
     1.0000   1.0000   1.0000   1.0000   1.0000   1.0000   1.0000   1.0000
     1.0000   1.0000   1.0000   1.0000   1.0000   1.0000   1.0000   1.0000
     1.0000   1.0000   1.0000   1.0000   1.0000   1.0000   1.0000   1.0000
     1.0000   1.0000   1.0000   1.0000   1.0000   1.0000   1.0000   1.0000
     1.0000   1.0000   1.0000   1.0000   1.0000   1.0000   1.0000   1.0000
     1.0000   1.0000   1.0000   1.0000   1.0000   1.0000   1.0000   1.0000
     1.0000   1.0000   1.0000   1.0000   1.0000   1.0000   1.0000   1.0000
     1.0000   1.0000   1.0000   1.0000   1.0000   1.0000   1.0000   1.0000
     1.0000   1.0000   1.0000   1.0000   1.0000   1.0000   1.0000   1.0000
     1.0000   1.0000   1.0000   1.0000   1.0000   1.0000   1.0000   1.0000
     1.0000   1.0000   1.0000   1.0000   1.0000   1.0000   1.0000   1.0000
     1.0000   1.0000   1.0000   1.0000   1.0000   1.0000   1.0000   1.0000
     1.0000   1.0000   1.0000   1.0000   1.0000   1.0000   1.0000   1.0000
     1.0000   1.0000   1.0000   1.0000   1.0000   1.0000   1.0000   1.0000
     1.0000   1.0000   1.0000   1.0000   1.0000   1.0000   1.0000   1.0000
     1.0000   1.0000   1.0000   1.0000   1.0000   1.0000   1.0000   1.0000
     1.0000   1.0000   1.0000   1.0000   1.0000   1.0000   1.0000   1.0000
     1.0000   1.0000   1.0000   1.0000   1.0000   1.0000   1.0000   1.0000
     1.0000   1.0000   1.0000   1.0000   1.0000   1.0000   1.0000   1.0000
     1.0000   1.0000   1.0000   1.0000   1.0000   1.0000   1.0000   1.0000
     1.0000   1.0000   1.0000   1.0000   1.0000   1.0000   1.0000   1.0000
     1.0000   1.0000   1.0000   1.0000   1.0000   1.0000   1.0000   1.0000
     1.0000   1.0000   1.0000   1.0000   1.0000   1.0000   1.0000   1.0000
     1.0000   1.0000   1.0000   1.0000   1.0000   1.0000   1.0000   1.0000
     1.0000   1.0000   1.0000   1.0000   1.0000   1.0000   1.0000   1.0000
     1.0000   1.0000   1.0000   1.0000   1.0000   1.0000   1.0000   1.0000
     1.0000   1.0000   1.0000   1.0000   1.0000   1.0000   1.0000   1.0000
     1.0000   1.0000   1.0000   1.0000   1.0000   1.0000   1.0000   1.0000
     1.0000   1.0000   1.0000   1.0000   1.0000   1.0000   1.0000   1.0000
     1.0000   1.0002   1.0003   1.0312  -0.0015  -0.0000  -0.0000  -0.0000
    -0.0000  -0.0000  -0.0000  -0.0000  -0.0000  -0.0000  -0.0000  -0.0000
    -0.0000  -0.0000  -0.0000  -0.0000  -0.0000  -0.0000  -0.0000  -0.0000
    -0.0000  -0.0000  -0.0000  -0.0000  -0.0000  -0.0000  -0.0000  -0.0000
    -0.0000  -0.0000  -0.0000  -0.0000  -0.0000  -0.0000  -0.0000  -0.0000
    -0.0000  -0.0000  -0.0000  -0.0000  -0.0000  -0.0000  -0.0000  -0.0000
    -0.0000  -0.0000  -0.0000  -0.0000  -0.0000  -0.0000  -0.0000  -0.0000
    -0.0000  -0.0000  -0.0000  -0.0000  -0.0000  -0.0000  -0.0000  -0.0000
    -0.0000  -0.0000  -0.0000  -0.0000  -0.0000  -0.0000  -0.0000  -0.0000
    -0.0000  -0.0000  -0.0000  -0.0000  -0.0000  -0.0000  -0.0000  -0.0000
    -0.0000  -0.0000  -0.0000  -0.0000  -0.0000  -0.0000  -0.0000  -0.0000
    -0.0000  -0.0000  -0.0000  -0.0000  -0.0000  -0.0000  -0.0000  -0.0000
    -0.0000  -0.0000  -0.0000  -0.0000  -0.0000  -0.0000  -0.0000  -0.0000
    -0.0000  -0.0000  -0.0000  -0.0000  -0.0000  -0.0000  -0.0000  -0.0000

          k =-0.2500 0.4330 0.4746 (554570 PWs)   bands (ev):

   -68.2851 -68.2849 -68.2848 -68.2848 -68.2846 -68.2846 -68.2846 -68.2846
   -68.2846 -68.2846 -68.2846 -68.2846 -68.2846 -68.2845 -68.2844 -68.2844
   -68.2842 -68.2841 -67.7467 -67.7456 -67.7455 -67.7452 -67.7448 -67.7446
   -67.7446 -67.7445 -67.7444 -67.7444 -67.7443 -67.7443 -67.7442 -67.7441
   -67.7441 -67.7441 -67.7441 -67.7440 -67.7439 -67.7438 -67.7438 -67.7438
   -67.7438 -67.7437 -67.7436 -67.7436 -67.7435 -67.7435 -67.7434 -67.7433
   -67.7433 -67.7431 -67.7428 -67.7424 -67.7423 -67.7412 -35.6961 -35.6960
   -35.6959 -35.6959 -35.6957 -35.6957 -35.6957 -35.6957 -35.6956 -35.6956
   -35.6956 -35.6956 -35.6956 -35.6956 -35.6954 -35.6954 -35.6953 -35.6952
   -35.6912 -35.6912 -35.6911 -35.6911 -35.6910 -35.6910 -35.6910 -35.6909
   -35.6908 -35.6908 -35.6908 -35.6908 -35.6908 -35.6908 -35.6908 -35.6907
   -35.6907 -35.6907 -35.6907 -35.6907 -35.6907 -35.6907 -35.6907 -35.6907
   -35.6907 -35.6907 -35.6906 -35.6906 -35.6905 -35.6905 -35.6905 -35.6905
   -35.6904 -35.6903 -35.6903 -35.6902 -35.1792 -35.1789 -35.1785 -35.1784
   -35.1782 -35.1781 -35.1780 -35.1778 -35.1777 -35.1776 -35.1776 -35.1775
   -35.1774 -35.1774 -35.1774 -35.1773 -35.1773 -35.1772 -35.1772 -35.1771
   -35.1771 -35.1771 -35.1770 -35.1770 -35.1769 -35.1769 -35.1769 -35.1768
   -35.1768 -35.1766 -35.1766 -35.1765 -35.1764 -35.1764 -35.1763 -35.1763
   -35.1762 -35.1761 -35.1760 -35.1760 -35.1759 -35.1757 -35.1757 -35.1754
   -35.1754 -35.1753 -35.1751 -35.1751 -35.1750 -35.1748 -35.1748 -35.1744
   -35.1739 -35.1736 -35.1719 -35.1715 -35.1715 -35.1712 -35.1712 -35.1710
   -35.1708 -35.1707 -35.1706 -35.1705 -35.1705 -35.1705 -35.1704 -35.1703
   -35.1703 -35.1703 -35.1702 -35.1701 -35.1700 -35.1699 -35.1697 -35.1697
   -35.1696 -35.1696 -35.1694 -35.1694 -35.1692 -35.1692 -35.1691 -35.1689
   -35.1689 -35.1688 -35.1687 -35.1687 -35.1686 -35.1685 -35.1685 -35.1684
   -35.1684 -35.1683 -35.1682 -35.1682 -35.1682 -35.1681 -35.1681 -35.1680
   -35.1680 -35.1678 -35.1677 -35.1676 -35.1673 -35.1672 -35.1670 -35.1663
   -14.2176 -14.2171 -14.2166 -14.2164 -14.2163 -14.2156 -14.2155 -14.2152
   -14.2151 -14.2147 -14.2146 -14.2146 -14.2145 -14.2144 -14.2140 -14.2138
   -14.2136 -14.2134 -14.2119 -14.2118 -14.2115 -14.2112 -14.2111 -14.2109
   -14.2108 -14.2106 -14.2106 -14.2105 -14.2103 -14.2102 -14.2099 -14.2097
   -14.2096 -14.2095 -14.2094 -14.2092 -14.2092 -14.2090 -14.2089 -14.2088
   -14.2087 -14.2086 -14.2084 -14.2083 -14.2082 -14.2081 -14.2081 -14.2079
   -14.2078 -14.2078 -14.2077 -14.2075 -14.2074 -14.2073 -14.2072 -14.2071
   -14.2068 -14.2064 -14.2060 -14.2058 -14.2056 -14.2053 -14.2049 -14.2048
   -14.2046 -14.2042 -14.2039 -14.2038 -14.2036 -14.2034 -14.2027 -14.2023
   -14.1899 -14.1884 -14.1883 -14.1877 -14.1876 -14.1875 -14.1874 -14.1869
   -14.1868 -14.1867 -14.1866 -14.1863 -14.1862 -14.1860 -14.1859 -14.1858
   -14.1857 -14.1856 -14.1854 -14.1853 -14.1851 -14.1850 -14.1848 -14.1845
   -14.1839 -14.1837 -14.1835 -14.1834 -14.1833 -14.1829 -14.1826 -14.1824
   -14.1823 -14.1822 -14.1821 -14.1808 -14.1744 -14.1741 -14.1736 -14.1735
   -14.1733 -14.1730 -14.1728 -14.1727 -14.1724 -14.1722 -14.1721 -14.1719
   -14.1718 -14.1717 -14.1716 -14.1715 -14.1713 -14.1711 -14.1710 -14.1707
   -14.1706 -14.1702 -14.1700 -14.1699 -14.1690 -14.1688 -14.1687 -14.1685
   -14.1679 -14.1673 -14.1669 -14.1668 -14.1664 -14.1662 -14.1660 -14.1657
   -14.1655 -14.1653 -14.1649 -14.1645 -14.1643 -14.1641 -14.1632 -14.1631
   -14.1630 -14.1628 -14.1627 -14.1623 -14.1616 -14.1614 -14.1612 -14.1609
   -14.1605 -14.1604 -14.1590 -14.1590 -14.1588 -14.1585 -14.1584 -14.1583
   -14.1581 -14.1581 -14.1579 -14.1578 -14.1577 -14.1575 -14.1573 -14.1569
   -14.1568 -14.1567 -14.1562 -14.1561  -3.5138  -3.5132  -3.3739  -3.3730
    -3.3725  -3.3719  -3.0314  -3.0306  -3.0295  -3.0286  -2.8665  -2.8659
    -2.8493  -2.8488  -2.8460  -2.8456  -2.8313  -2.8307  -2.7786  -2.7779
    -2.7547  -2.7543  -2.7534  -2.7526  -2.6170  -2.6161  -2.6144  -2.6137
    -2.6020  -2.6016  -2.5987  -2.5981  -2.5980  -2.5975  -2.5865  -2.5859
     3.1055   3.1055   3.1464   3.1472   3.2367   3.2368   3.5560   3.5566
     3.5635   3.5637   3.6183   3.6193   3.6467   3.6473   3.6867   3.6868
     3.6978   3.6983   3.7290   3.7305   3.7627   3.7636   3.8002   3.8004
     3.8366   3.8368   3.8919   3.8920   4.0424   4.0426   4.6531   4.6535
     4.7119   4.7121   4.8641   4.8644   4.9791   4.9792   5.0585   5.0588
     5.0626   5.0629   5.1204   5.1209   5.1352   5.1359   5.3425   5.3437
     5.3966   5.3972   5.3993   5.3998   5.4398   5.4399   5.4542   5.4542
     5.6031   5.6039   5.7196   5.7198   5.7232   5.7233   5.7316   5.7318
     5.7706   5.7710   5.8399   5.8403   6.0227   6.0241   6.1913   6.1923
     6.2120   6.2126   6.3000   6.3002   6.3315   6.3318   6.4173   6.4181
     6.4377   6.4380   6.5673   6.5677   6.7038   6.7041   6.7089   6.7094
     6.7306   6.7307   6.8914   6.8917   7.0891   7.0899   7.1196   7.1199
     7.1667   7.1669   7.1733   7.1739   7.3887   7.3891   7.4248   7.4252
     7.4324   7.4330   7.4904   7.4906   8.4527   8.4529   8.6180   8.6181
     9.0657   9.0658   9.1433   9.1433   9.1642   9.1643   9.3609   9.3613
     9.4333   9.4337   9.5049   9.5054   9.6472   9.6475   9.6515   9.6519
     9.6923   9.6924   9.8331   9.8333   9.9335   9.9346   9.9574   9.9575
    10.1292  10.1296  10.1504  10.1506  10.2226  10.2234  10.2512  10.2514
    10.3247  10.3255  10.4071  10.4072  10.4078  10.4084  10.5517  10.5517
    10.6082  10.6085  10.6801  10.6803  10.7176  10.7187  10.8779  10.8780
    10.9584  10.9586  11.0146  11.0150  11.0865  11.0868  11.1243  11.1253
    11.1345  11.1348  11.1707  11.1714  11.2518  11.2519  11.2716  11.2718
    11.3496  11.3497  11.4772  11.4775  11.5590  11.5592  11.6025  11.6027
    11.6126  11.6133  11.6442  11.6445  11.6572  11.6574  11.6777  11.6781
    11.7482  11.7483  11.7559  11.7560  11.8657  11.8671  11.9145  11.9146
    11.9310  11.9310  12.2535  12.2537  12.2657  12.2660  12.4155  12.4163
    12.4867  12.4868  12.5688  12.5690  12.5877  12.5879  12.6558  12.6561

     occupation numbers 
     1.0000   1.0000   1.0000   1.0000   1.0000   1.0000   1.0000   1.0000
     1.0000   1.0000   1.0000   1.0000   1.0000   1.0000   1.0000   1.0000
     1.0000   1.0000   1.0000   1.0000   1.0000   1.0000   1.0000   1.0000
     1.0000   1.0000   1.0000   1.0000   1.0000   1.0000   1.0000   1.0000
     1.0000   1.0000   1.0000   1.0000   1.0000   1.0000   1.0000   1.0000
     1.0000   1.0000   1.0000   1.0000   1.0000   1.0000   1.0000   1.0000
     1.0000   1.0000   1.0000   1.0000   1.0000   1.0000   1.0000   1.0000
     1.0000   1.0000   1.0000   1.0000   1.0000   1.0000   1.0000   1.0000
     1.0000   1.0000   1.0000   1.0000   1.0000   1.0000   1.0000   1.0000
     1.0000   1.0000   1.0000   1.0000   1.0000   1.0000   1.0000   1.0000
     1.0000   1.0000   1.0000   1.0000   1.0000   1.0000   1.0000   1.0000
     1.0000   1.0000   1.0000   1.0000   1.0000   1.0000   1.0000   1.0000
     1.0000   1.0000   1.0000   1.0000   1.0000   1.0000   1.0000   1.0000
     1.0000   1.0000   1.0000   1.0000   1.0000   1.0000   1.0000   1.0000
     1.0000   1.0000   1.0000   1.0000   1.0000   1.0000   1.0000   1.0000
     1.0000   1.0000   1.0000   1.0000   1.0000   1.0000   1.0000   1.0000
     1.0000   1.0000   1.0000   1.0000   1.0000   1.0000   1.0000   1.0000
     1.0000   1.0000   1.0000   1.0000   1.0000   1.0000   1.0000   1.0000
     1.0000   1.0000   1.0000   1.0000   1.0000   1.0000   1.0000   1.0000
     1.0000   1.0000   1.0000   1.0000   1.0000   1.0000   1.0000   1.0000
     1.0000   1.0000   1.0000   1.0000   1.0000   1.0000   1.0000   1.0000
     1.0000   1.0000   1.0000   1.0000   1.0000   1.0000   1.0000   1.0000
     1.0000   1.0000   1.0000   1.0000   1.0000   1.0000   1.0000   1.0000
     1.0000   1.0000   1.0000   1.0000   1.0000   1.0000   1.0000   1.0000
     1.0000   1.0000   1.0000   1.0000   1.0000   1.0000   1.0000   1.0000
     1.0000   1.0000   1.0000   1.0000   1.0000   1.0000   1.0000   1.0000
     1.0000   1.0000   1.0000   1.0000   1.0000   1.0000   1.0000   1.0000
     1.0000   1.0000   1.0000   1.0000   1.0000   1.0000   1.0000   1.0000
     1.0000   1.0000   1.0000   1.0000   1.0000   1.0000   1.0000   1.0000
     1.0000   1.0000   1.0000   1.0000   1.0000   1.0000   1.0000   1.0000
     1.0000   1.0000   1.0000   1.0000   1.0000   1.0000   1.0000   1.0000
     1.0000   1.0000   1.0000   1.0000   1.0000   1.0000   1.0000   1.0000
     1.0000   1.0000   1.0000   1.0000   1.0000   1.0000   1.0000   1.0000
     1.0000   1.0000   1.0000   1.0000   1.0000   1.0000   1.0000   1.0000
     1.0000   1.0000   1.0000   1.0000   1.0000   1.0000   1.0000   1.0000
     1.0000   1.0000   1.0000   1.0000   1.0000   1.0000   1.0000   1.0000
     1.0000   1.0000   1.0000   1.0000   1.0000   1.0000   1.0000   1.0000
     1.0000   1.0000   1.0000   1.0000   1.0000   1.0000   1.0000   1.0000
     1.0000   1.0000   1.0000   1.0000   1.0000   1.0000   1.0000   1.0000
     1.0000   1.0000   1.0000   1.0000   1.0000   1.0000   1.0000   1.0000
     1.0000   1.0000   1.0000   1.0000   1.0000   1.0000   1.0000   1.0000
     1.0000   1.0000   1.0000   1.0000   1.0000   1.0000   1.0000   1.0000
     1.0000   1.0000   1.0000   1.0000   1.0000   1.0000   1.0000   1.0000
     1.0000   1.0000   1.0000   1.0000   1.0000   1.0000   1.0000   1.0000
     1.0000   1.0000   1.0000   1.0000   1.0000   1.0000   1.0000   1.0000
     1.0000   1.0000   1.0000   1.0000   1.0000   1.0000   1.0000   1.0000
     1.0000   1.0000   1.0000   1.0000   1.0000   1.0000   1.0000   1.0000
     1.0000   1.0000   1.0000   1.0000   1.0000   1.0000   1.0000   1.0000
     1.0000   1.0000   1.0000   1.0000   1.0000   1.0000   1.0000   1.0000
     1.0000   1.0000   1.0000   1.0000   1.0000   1.0000   1.0000   1.0000
     1.0000   1.0000   1.0000   1.0000   1.0000   1.0000   1.0000   1.0000
     1.0000   1.0000   1.0000   1.0000   1.0000   1.0000   1.0000   1.0000
     1.0000   1.0000   1.0000   1.0000   1.0000   1.0000   1.0000   1.0000
     1.0000   1.0000   1.0000   1.0000   1.0000   1.0000   1.0000   1.0000
     1.0000   1.0000   1.0000   1.0000   1.0000   1.0000   1.0000   1.0000
     1.0000   1.0000   1.0000   1.0000   1.0000   1.0000   1.0000   1.0000
     1.0000   1.0000   1.0000   1.0000   1.0000   1.0000   1.0000   1.0000
     1.0000   1.0000   1.0000   1.0000   1.0000   1.0000   1.0000   1.0000
     1.0000   1.0000   1.0000   1.0000   1.0000   1.0000   1.0000   1.0000
     1.0000   1.0000   1.0000   1.0000   1.0000   1.0000   1.0000   1.0000
     1.0000   1.0000   1.0000   1.0000   1.0000   1.0000   1.0000   1.0000
     1.0000   1.0000   1.0000   1.0000   1.0000   1.0000   1.0000   1.0000
     1.0000   1.0000   1.0000   1.0000   1.0000   1.0000   1.0000   1.0000
     1.0000   1.0000   1.0000   1.0000   1.0000   1.0000   1.0000   1.0000
     1.0000   1.0000   1.0000   1.0000   1.0000   1.0000   1.0000   1.0000
     1.0000   1.0000   1.0000   1.0000   1.0000   1.0000   1.0000   1.0000
     1.0000   1.0000   1.0000   1.0000   1.0000   1.0000   1.0000   1.0000
     1.0000   1.0000   1.0000   1.0000  -0.0000  -0.0000  -0.0000  -0.0000
    -0.0000  -0.0000  -0.0000  -0.0000  -0.0000  -0.0000  -0.0000  -0.0000
    -0.0000  -0.0000  -0.0000  -0.0000  -0.0000  -0.0000  -0.0000  -0.0000
    -0.0000  -0.0000  -0.0000  -0.0000  -0.0000  -0.0000  -0.0000  -0.0000
    -0.0000  -0.0000  -0.0000  -0.0000  -0.0000  -0.0000  -0.0000  -0.0000
    -0.0000  -0.0000  -0.0000  -0.0000  -0.0000  -0.0000  -0.0000  -0.0000
    -0.0000  -0.0000  -0.0000  -0.0000  -0.0000  -0.0000  -0.0000  -0.0000
    -0.0000  -0.0000  -0.0000  -0.0000  -0.0000  -0.0000  -0.0000  -0.0000
    -0.0000  -0.0000  -0.0000  -0.0000  -0.0000  -0.0000  -0.0000  -0.0000
    -0.0000  -0.0000  -0.0000  -0.0000  -0.0000  -0.0000  -0.0000  -0.0000
    -0.0000  -0.0000  -0.0000  -0.0000  -0.0000  -0.0000  -0.0000  -0.0000
    -0.0000  -0.0000  -0.0000  -0.0000  -0.0000  -0.0000  -0.0000  -0.0000
    -0.0000  -0.0000  -0.0000  -0.0000  -0.0000  -0.0000  -0.0000  -0.0000
    -0.0000  -0.0000  -0.0000  -0.0000  -0.0000  -0.0000  -0.0000  -0.0000

          k = 0.5000 0.0000-0.4746 (554570 PWs)   bands (ev):

   -68.2851 -68.2849 -68.2848 -68.2848 -68.2846 -68.2846 -68.2846 -68.2846
   -68.2846 -68.2846 -68.2846 -68.2846 -68.2846 -68.2845 -68.2844 -68.2844
   -68.2842 -68.2841 -67.7467 -67.7456 -67.7455 -67.7452 -67.7448 -67.7446
   -67.7446 -67.7445 -67.7444 -67.7444 -67.7443 -67.7443 -67.7442 -67.7441
   -67.7441 -67.7441 -67.7441 -67.7440 -67.7439 -67.7439 -67.7438 -67.7438
   -67.7438 -67.7437 -67.7436 -67.7436 -67.7435 -67.7435 -67.7434 -67.7433
   -67.7433 -67.7431 -67.7428 -67.7424 -67.7423 -67.7412 -35.6961 -35.6960
   -35.6959 -35.6959 -35.6957 -35.6957 -35.6957 -35.6957 -35.6956 -35.6956
   -35.6956 -35.6956 -35.6956 -35.6956 -35.6954 -35.6954 -35.6953 -35.6952
   -35.6912 -35.6912 -35.6911 -35.6911 -35.6910 -35.6910 -35.6910 -35.6909
   -35.6908 -35.6908 -35.6908 -35.6908 -35.6908 -35.6908 -35.6907 -35.6907
   -35.6907 -35.6907 -35.6907 -35.6907 -35.6907 -35.6907 -35.6907 -35.6907
   -35.6907 -35.6907 -35.6906 -35.6906 -35.6905 -35.6905 -35.6905 -35.6905
   -35.6904 -35.6903 -35.6903 -35.6902 -35.1792 -35.1789 -35.1784 -35.1783
   -35.1782 -35.1781 -35.1779 -35.1778 -35.1777 -35.1776 -35.1775 -35.1775
   -35.1774 -35.1774 -35.1773 -35.1773 -35.1773 -35.1772 -35.1772 -35.1772
   -35.1771 -35.1771 -35.1771 -35.1770 -35.1770 -35.1769 -35.1768 -35.1768
   -35.1767 -35.1766 -35.1765 -35.1765 -35.1764 -35.1764 -35.1763 -35.1763
   -35.1762 -35.1761 -35.1761 -35.1761 -35.1759 -35.1757 -35.1756 -35.1755
   -35.1753 -35.1753 -35.1752 -35.1751 -35.1750 -35.1748 -35.1747 -35.1743
   -35.1741 -35.1736 -35.1720 -35.1715 -35.1714 -35.1712 -35.1711 -35.1710
   -35.1709 -35.1707 -35.1706 -35.1706 -35.1705 -35.1705 -35.1704 -35.1704
   -35.1704 -35.1702 -35.1701 -35.1700 -35.1700 -35.1698 -35.1697 -35.1697
   -35.1696 -35.1696 -35.1694 -35.1693 -35.1692 -35.1692 -35.1691 -35.1690
   -35.1690 -35.1689 -35.1687 -35.1687 -35.1686 -35.1686 -35.1685 -35.1684
   -35.1683 -35.1683 -35.1682 -35.1682 -35.1682 -35.1681 -35.1681 -35.1680
   -35.1680 -35.1678 -35.1677 -35.1676 -35.1673 -35.1672 -35.1669 -35.1663
   -14.2176 -14.2171 -14.2165 -14.2165 -14.2162 -14.2155 -14.2154 -14.2153
   -14.2151 -14.2148 -14.2147 -14.2146 -14.2145 -14.2143 -14.2140 -14.2139
   -14.2136 -14.2133 -14.2121 -14.2117 -14.2114 -14.2113 -14.2111 -14.2109
   -14.2108 -14.2106 -14.2105 -14.2104 -14.2103 -14.2102 -14.2100 -14.2098
   -14.2097 -14.2096 -14.2093 -14.2092 -14.2091 -14.2089 -14.2088 -14.2088
   -14.2086 -14.2086 -14.2084 -14.2083 -14.2082 -14.2081 -14.2080 -14.2079
   -14.2078 -14.2078 -14.2077 -14.2075 -14.2074 -14.2073 -14.2072 -14.2070
   -14.2067 -14.2066 -14.2062 -14.2057 -14.2056 -14.2054 -14.2049 -14.2048
   -14.2046 -14.2041 -14.2039 -14.2038 -14.2036 -14.2034 -14.2027 -14.2024
   -14.1900 -14.1883 -14.1882 -14.1878 -14.1876 -14.1875 -14.1873 -14.1868
   -14.1868 -14.1867 -14.1866 -14.1864 -14.1863 -14.1862 -14.1859 -14.1858
   -14.1857 -14.1856 -14.1854 -14.1853 -14.1850 -14.1849 -14.1848 -14.1845
   -14.1837 -14.1837 -14.1836 -14.1835 -14.1833 -14.1828 -14.1826 -14.1824
   -14.1823 -14.1823 -14.1821 -14.1808 -14.1745 -14.1741 -14.1735 -14.1735
   -14.1731 -14.1730 -14.1728 -14.1727 -14.1726 -14.1722 -14.1722 -14.1720
   -14.1718 -14.1716 -14.1716 -14.1715 -14.1714 -14.1713 -14.1711 -14.1709
   -14.1702 -14.1701 -14.1700 -14.1699 -14.1690 -14.1688 -14.1687 -14.1685
   -14.1675 -14.1674 -14.1669 -14.1668 -14.1666 -14.1664 -14.1659 -14.1656
   -14.1655 -14.1653 -14.1650 -14.1645 -14.1644 -14.1641 -14.1632 -14.1631
   -14.1631 -14.1629 -14.1626 -14.1623 -14.1615 -14.1614 -14.1611 -14.1610
   -14.1604 -14.1603 -14.1593 -14.1590 -14.1586 -14.1585 -14.1584 -14.1583
   -14.1581 -14.1580 -14.1579 -14.1578 -14.1577 -14.1575 -14.1574 -14.1569
   -14.1568 -14.1567 -14.1563 -14.1559  -3.5138  -3.5132  -3.3734  -3.3731
    -3.3724  -3.3722  -3.0311  -3.0307  -3.0293  -3.0290  -2.8665  -2.8659
    -2.8491  -2.8490  -2.8460  -2.8456  -2.8313  -2.8307  -2.7785  -2.7779
    -2.7545  -2.7543  -2.7532  -2.7529  -2.6166  -2.6163  -2.6144  -2.6140
    -2.6020  -2.6016  -2.5987  -2.5982  -2.5979  -2.5975  -2.5865  -2.5859
     3.1054   3.1056   3.1466   3.1469   3.2366   3.2369   3.5560   3.5567
     3.5635   3.5637   3.6184   3.6192   3.6469   3.6471   3.6866   3.6868
     3.6980   3.6982   3.7292   3.7304   3.7629   3.7634   3.8002   3.8004
     3.8366   3.8368   3.8920   3.8920   4.0424   4.0426   4.6532   4.6535
     4.7118   4.7122   4.8642   4.8643   4.9791   4.9792   5.0585   5.0588
     5.0627   5.0628   5.1205   5.1207   5.1353   5.1357   5.3428   5.3434
     5.3968   5.3970   5.3995   5.3997   5.4398   5.4398   5.4542   5.4542
     5.6032   5.6038   5.7195   5.7200   5.7230   5.7234   5.7316   5.7318
     5.7706   5.7710   5.8399   5.8403   6.0228   6.0240   6.1916   6.1921
     6.2122   6.2124   6.3001   6.3001   6.3315   6.3317   6.4176   6.4177
     6.4377   6.4380   6.5673   6.5677   6.7039   6.7041   6.7088   6.7095
     6.7306   6.7307   6.8913   6.8917   7.0893   7.0898   7.1197   7.1199
     7.1667   7.1669   7.1735   7.1737   7.3887   7.3891   7.4249   7.4252
     7.4327   7.4327   7.4904   7.4906   8.4528   8.4529   8.6180   8.6181
     9.0657   9.0658   9.1432   9.1434   9.1642   9.1644   9.3609   9.3613
     9.4334   9.4336   9.5051   9.5053   9.6473   9.6474   9.6516   9.6517
     9.6924   9.6924   9.8331   9.8333   9.9335   9.9346   9.9574   9.9575
    10.1293  10.1295  10.1504  10.1506  10.2226  10.2234  10.2512  10.2513
    10.3248  10.3254  10.4070  10.4072  10.4080  10.4083  10.5517  10.5517
    10.6082  10.6085  10.6801  10.6803  10.7178  10.7185  10.8779  10.8780
    10.9584  10.9586  11.0147  11.0148  11.0864  11.0869  11.1245  11.1250
    11.1346  11.1347  11.1707  11.1715  11.2516  11.2521  11.2716  11.2718
    11.3496  11.3497  11.4771  11.4775  11.5589  11.5593  11.6024  11.6027
    11.6127  11.6132  11.6442  11.6444  11.6572  11.6574  11.6776  11.6783
    11.7482  11.7483  11.7558  11.7561  11.8659  11.8670  11.9145  11.9146
    11.9310  11.9311  12.2534  12.2537  12.2657  12.2660  12.4156  12.4162
    12.4867  12.4868  12.5688  12.5689  12.5877  12.5877  12.6557  12.6560

     occupation numbers 
     1.0000   1.0000   1.0000   1.0000   1.0000   1.0000   1.0000   1.0000
     1.0000   1.0000   1.0000   1.0000   1.0000   1.0000   1.0000   1.0000
     1.0000   1.0000   1.0000   1.0000   1.0000   1.0000   1.0000   1.0000
     1.0000   1.0000   1.0000   1.0000   1.0000   1.0000   1.0000   1.0000
     1.0000   1.0000   1.0000   1.0000   1.0000   1.0000   1.0000   1.0000
     1.0000   1.0000   1.0000   1.0000   1.0000   1.0000   1.0000   1.0000
     1.0000   1.0000   1.0000   1.0000   1.0000   1.0000   1.0000   1.0000
     1.0000   1.0000   1.0000   1.0000   1.0000   1.0000   1.0000   1.0000
     1.0000   1.0000   1.0000   1.0000   1.0000   1.0000   1.0000   1.0000
     1.0000   1.0000   1.0000   1.0000   1.0000   1.0000   1.0000   1.0000
     1.0000   1.0000   1.0000   1.0000   1.0000   1.0000   1.0000   1.0000
     1.0000   1.0000   1.0000   1.0000   1.0000   1.0000   1.0000   1.0000
     1.0000   1.0000   1.0000   1.0000   1.0000   1.0000   1.0000   1.0000
     1.0000   1.0000   1.0000   1.0000   1.0000   1.0000   1.0000   1.0000
     1.0000   1.0000   1.0000   1.0000   1.0000   1.0000   1.0000   1.0000
     1.0000   1.0000   1.0000   1.0000   1.0000   1.0000   1.0000   1.0000
     1.0000   1.0000   1.0000   1.0000   1.0000   1.0000   1.0000   1.0000
     1.0000   1.0000   1.0000   1.0000   1.0000   1.0000   1.0000   1.0000
     1.0000   1.0000   1.0000   1.0000   1.0000   1.0000   1.0000   1.0000
     1.0000   1.0000   1.0000   1.0000   1.0000   1.0000   1.0000   1.0000
     1.0000   1.0000   1.0000   1.0000   1.0000   1.0000   1.0000   1.0000
     1.0000   1.0000   1.0000   1.0000   1.0000   1.0000   1.0000   1.0000
     1.0000   1.0000   1.0000   1.0000   1.0000   1.0000   1.0000   1.0000
     1.0000   1.0000   1.0000   1.0000   1.0000   1.0000   1.0000   1.0000
     1.0000   1.0000   1.0000   1.0000   1.0000   1.0000   1.0000   1.0000
     1.0000   1.0000   1.0000   1.0000   1.0000   1.0000   1.0000   1.0000
     1.0000   1.0000   1.0000   1.0000   1.0000   1.0000   1.0000   1.0000
     1.0000   1.0000   1.0000   1.0000   1.0000   1.0000   1.0000   1.0000
     1.0000   1.0000   1.0000   1.0000   1.0000   1.0000   1.0000   1.0000
     1.0000   1.0000   1.0000   1.0000   1.0000   1.0000   1.0000   1.0000
     1.0000   1.0000   1.0000   1.0000   1.0000   1.0000   1.0000   1.0000
     1.0000   1.0000   1.0000   1.0000   1.0000   1.0000   1.0000   1.0000
     1.0000   1.0000   1.0000   1.0000   1.0000   1.0000   1.0000   1.0000
     1.0000   1.0000   1.0000   1.0000   1.0000   1.0000   1.0000   1.0000
     1.0000   1.0000   1.0000   1.0000   1.0000   1.0000   1.0000   1.0000
     1.0000   1.0000   1.0000   1.0000   1.0000   1.0000   1.0000   1.0000
     1.0000   1.0000   1.0000   1.0000   1.0000   1.0000   1.0000   1.0000
     1.0000   1.0000   1.0000   1.0000   1.0000   1.0000   1.0000   1.0000
     1.0000   1.0000   1.0000   1.0000   1.0000   1.0000   1.0000   1.0000
     1.0000   1.0000   1.0000   1.0000   1.0000   1.0000   1.0000   1.0000
     1.0000   1.0000   1.0000   1.0000   1.0000   1.0000   1.0000   1.0000
     1.0000   1.0000   1.0000   1.0000   1.0000   1.0000   1.0000   1.0000
     1.0000   1.0000   1.0000   1.0000   1.0000   1.0000   1.0000   1.0000
     1.0000   1.0000   1.0000   1.0000   1.0000   1.0000   1.0000   1.0000
     1.0000   1.0000   1.0000   1.0000   1.0000   1.0000   1.0000   1.0000
     1.0000   1.0000   1.0000   1.0000   1.0000   1.0000   1.0000   1.0000
     1.0000   1.0000   1.0000   1.0000   1.0000   1.0000   1.0000   1.0000
     1.0000   1.0000   1.0000   1.0000   1.0000   1.0000   1.0000   1.0000
     1.0000   1.0000   1.0000   1.0000   1.0000   1.0000   1.0000   1.0000
     1.0000   1.0000   1.0000   1.0000   1.0000   1.0000   1.0000   1.0000
     1.0000   1.0000   1.0000   1.0000   1.0000   1.0000   1.0000   1.0000
     1.0000   1.0000   1.0000   1.0000   1.0000   1.0000   1.0000   1.0000
     1.0000   1.0000   1.0000   1.0000   1.0000   1.0000   1.0000   1.0000
     1.0000   1.0000   1.0000   1.0000   1.0000   1.0000   1.0000   1.0000
     1.0000   1.0000   1.0000   1.0000   1.0000   1.0000   1.0000   1.0000
     1.0000   1.0000   1.0000   1.0000   1.0000   1.0000   1.0000   1.0000
     1.0000   1.0000   1.0000   1.0000   1.0000   1.0000   1.0000   1.0000
     1.0000   1.0000   1.0000   1.0000   1.0000   1.0000   1.0000   1.0000
     1.0000   1.0000   1.0000   1.0000   1.0000   1.0000   1.0000   1.0000
     1.0000   1.0000   1.0000   1.0000   1.0000   1.0000   1.0000   1.0000
     1.0000   1.0000   1.0000   1.0000   1.0000   1.0000   1.0000   1.0000
     1.0000   1.0000   1.0000   1.0000   1.0000   1.0000   1.0000   1.0000
     1.0000   1.0000   1.0000   1.0000   1.0000   1.0000   1.0000   1.0000
     1.0000   1.0000   1.0000   1.0000   1.0000   1.0000   1.0000   1.0000
     1.0000   1.0000   1.0000   1.0000   1.0000   1.0000   1.0000   1.0000
     1.0000   1.0000   1.0000   1.0000   1.0000   1.0000   1.0000   1.0000
     1.0000   1.0000   1.0000   1.0000   1.0000   1.0000   1.0000   1.0000
     1.0000   1.0000   1.0000   1.0000  -0.0000  -0.0000  -0.0000  -0.0000
    -0.0000  -0.0000  -0.0000  -0.0000  -0.0000  -0.0000  -0.0000  -0.0000
    -0.0000  -0.0000  -0.0000  -0.0000  -0.0000  -0.0000  -0.0000  -0.0000
    -0.0000  -0.0000  -0.0000  -0.0000  -0.0000  -0.0000  -0.0000  -0.0000
    -0.0000  -0.0000  -0.0000  -0.0000  -0.0000  -0.0000  -0.0000  -0.0000
    -0.0000  -0.0000  -0.0000  -0.0000  -0.0000  -0.0000  -0.0000  -0.0000
    -0.0000  -0.0000  -0.0000  -0.0000  -0.0000  -0.0000  -0.0000  -0.0000
    -0.0000  -0.0000  -0.0000  -0.0000  -0.0000  -0.0000  -0.0000  -0.0000
    -0.0000  -0.0000  -0.0000  -0.0000  -0.0000  -0.0000  -0.0000  -0.0000
    -0.0000  -0.0000  -0.0000  -0.0000  -0.0000  -0.0000  -0.0000  -0.0000
    -0.0000  -0.0000  -0.0000  -0.0000  -0.0000  -0.0000  -0.0000  -0.0000
    -0.0000  -0.0000  -0.0000  -0.0000  -0.0000  -0.0000  -0.0000  -0.0000
    -0.0000  -0.0000  -0.0000  -0.0000  -0.0000  -0.0000  -0.0000  -0.0000
    -0.0000  -0.0000  -0.0000  -0.0000  -0.0000  -0.0000  -0.0000  -0.0000

     the Fermi energy is     7.9779 ev

!    total energy              =  -12302.28619551 Ry
     estimated scf accuracy    <          3.7E-11 Ry
     smearing contrib. (-TS)   =       0.00084671 Ry
     internal energy E=F+TS    =  -12302.28704222 Ry

     The total energy is F=E-TS. E is the sum of the following terms:
     one-electron contribution =   -7010.72606126 Ry
     hartree contribution      =    3660.88149657 Ry
     xc contribution           =   -2373.33496025 Ry
     ewald contribution        =   -6579.10751728 Ry

     convergence has been achieved in  16 iterations

     Forces acting on atoms (cartesian axes, Ry/au):

     atom    1 type  1   force =     0.00000062   -0.00000853   -0.00005668
     atom    2 type  1   force =     0.00000455    0.00000064   -0.00008622
     atom    3 type  1   force =    -0.00000236    0.00000345   -0.00008870
     atom    4 type  1   force =    -0.00000975   -0.00001045   -0.00008019
     atom    5 type  1   force =     0.00000407    0.00000245   -0.00008520
     atom    6 type  1   force =     0.00000352   -0.00000401   -0.00008744
     atom    7 type  1   force =    -0.00002349    0.00001389   -0.00001741
     atom    8 type  1   force =     0.00000834    0.00000791   -0.00008276
     atom    9 type  1   force =    -0.00000866   -0.00000539   -0.00009591
     atom   10 type  1   force =    -0.00006398   -0.00005557   -0.00004459
     atom   11 type  1   force =     0.00000797   -0.00000969   -0.00005694
     atom   12 type  1   force =     0.00007706   -0.00003011   -0.00006383
     atom   13 type  1   force =    -0.00001215   -0.00000967   -0.00007609
     atom   14 type  1   force =    -0.00000122    0.00000331   -0.00007572
     atom   15 type  1   force =     0.00002484    0.00003985   -0.00006046
     atom   16 type  1   force =    -0.00003797   -0.00001519   -0.00008121
     atom   17 type  1   force =     0.00000455    0.00000621   -0.00007592
     atom   18 type  1   force =     0.00005838    0.00007047   -0.00000840
     atom   19 type  1   force =     0.00005914    0.00007147    0.00016783
     atom   20 type  1   force =     0.00000447    0.00000618    0.00009921
     atom   21 type  1   force =    -0.00003772   -0.00001528    0.00009362
     atom   22 type  1   force =     0.00002510    0.00003966    0.00011479
     atom   23 type  1   force =    -0.00000146    0.00000338    0.00009938
     atom   24 type  1   force =    -0.00001205   -0.00000958    0.00009898
     atom   25 type  1   force =     0.00007688   -0.00002986    0.00011137
     atom   26 type  1   force =     0.00000813   -0.00000978    0.00011812
     atom   27 type  1   force =    -0.00006443   -0.00005589    0.00013054
     atom   28 type  1   force =    -0.00000866   -0.00000527    0.00007829
     atom   29 type  1   force =     0.00000839    0.00000808    0.00009139
     atom   30 type  1   force =    -0.00002371    0.00001411    0.00015654
     atom   31 type  1   force =     0.00000348   -0.00000410    0.00008658
     atom   32 type  1   force =     0.00000406    0.00000245    0.00008886
     atom   33 type  1   force =    -0.00000974   -0.00001051    0.00009383
     atom   34 type  1   force =    -0.00000246    0.00000335    0.00008533
     atom   35 type  1   force =     0.00000460    0.00000056    0.00008785
     atom   36 type  1   force =     0.00000060   -0.00000875    0.00011743
     atom   37 type  1   force =    -0.00054408    0.00000007   -0.00047474
     atom   38 type  1   force =     0.00004529    0.00003656   -0.00006352
     atom   39 type  1   force =     0.00004493    0.00003646   -0.00006330
     atom   40 type  1   force =    -0.00003960   -0.00004878   -0.00009335
     atom   41 type  1   force =     0.00002377    0.00001231   -0.00003339
     atom   42 type  1   force =     0.00001075   -0.00000007   -0.00002452
     atom   43 type  1   force =    -0.00003951   -0.00004897   -0.00009354
     atom   44 type  1   force =     0.00001076    0.00000009   -0.00002446
     atom   45 type  1   force =     0.00002370    0.00001238   -0.00003337
     atom   46 type  1   force =    -0.00000570   -0.00000003    0.00000882
     atom   47 type  1   force =     0.00000294    0.00000535    0.00001092
     atom   48 type  1   force =     0.00000284    0.00000537    0.00001090
     atom   49 type  1   force =    -0.00001119   -0.00000811    0.00000648
     atom   50 type  1   force =    -0.00000178    0.00000274    0.00001533
     atom   51 type  1   force =     0.00002259   -0.00000004    0.00001651
     atom   52 type  1   force =    -0.00001111   -0.00000808    0.00000649
     atom   53 type  1   force =     0.00002256    0.00000006    0.00001644
     atom   54 type  1   force =    -0.00000186    0.00000270    0.00001531
     atom   55 type  2   force =    -0.00000239    0.00008129    0.00001943
     atom   56 type  2   force =    -0.00001286   -0.00001039   -0.00002915
     atom   57 type  2   force =    -0.00000060    0.00000209   -0.00001830
     atom   58 type  2   force =     0.00000391    0.00001767   -0.00003056
     atom   59 type  2   force =    -0.00001071   -0.00000878   -0.00003023
     atom   60 type  2   force =     0.00000423    0.00000758   -0.00002383
     atom   61 type  2   force =     0.00020809   -0.00012151    0.00010654
     atom   62 type  2   force =    -0.00002608   -0.00000797   -0.00003052
     atom   63 type  2   force =     0.00006230    0.00003730   -0.00006438
     atom   64 type  2   force =     0.00002557    0.00000823   -0.00004498
     atom   65 type  2   force =    -0.00001863   -0.00000879   -0.00002354
     atom   66 type  2   force =    -0.00004214    0.00002086   -0.00008014
     atom   67 type  2   force =     0.00001155    0.00001091   -0.00003946
     atom   68 type  2   force =    -0.00000418   -0.00000119   -0.00003198
     atom   69 type  2   force =    -0.00000464   -0.00001325   -0.00005168
     atom   70 type  2   force =     0.00001129    0.00000860   -0.00003763
     atom   71 type  2   force =    -0.00000678   -0.00000878   -0.00003581
     atom   72 type  2   force =    -0.00000432   -0.00001689   -0.00005246
     atom   73 type  2   force =    -0.00000347   -0.00001734    0.00000858
     atom   74 type  2   force =    -0.00000639   -0.00000912    0.00002514
     atom   75 type  2   force =     0.00001037    0.00000827    0.00002312
     atom   76 type  2   force =    -0.00000473   -0.00001297    0.00000924
     atom   77 type  2   force =    -0.00000348   -0.00000147    0.00002887
     atom   78 type  2   force =     0.00001129    0.00001019    0.00002104
     atom   79 type  2   force =    -0.00004152    0.00002168   -0.00001855
     atom   80 type  2   force =    -0.00001888   -0.00000760    0.00003770
     atom   81 type  2   force =     0.00002573    0.00000860    0.00001568
     atom   82 type  2   force =     0.00006164    0.00003628   -0.00000228
     atom   83 type  2   force =    -0.00002612   -0.00000882    0.00003199
     atom   84 type  2   force =     0.00019598   -0.00011465    0.00016051
     atom   85 type  2   force =     0.00000396    0.00000795    0.00003792
     atom   86 type  2   force =    -0.00001045   -0.00000922    0.00003190
     atom   87 type  2   force =     0.00000388    0.00001760    0.00003154
     atom   88 type  2   force =    -0.00000008    0.00000299    0.00004330
     atom   89 type  2   force =    -0.00001374   -0.00000954    0.00003285
     atom   90 type  2   force =    -0.00000185    0.00008038    0.00008084
     The non-local contrib.  to forces
     atom    1 type  1   force =     0.00000740    0.00003938    0.03083696
     atom    2 type  1   force =    -0.00002458   -0.00000328    0.03095932
     atom    3 type  1   force =     0.00001126   -0.00001686    0.03100678
     atom    4 type  1   force =     0.00005406    0.00006151    0.03090416
     atom    5 type  1   force =    -0.00002529   -0.00001605    0.03095444
     atom    6 type  1   force =    -0.00001844    0.00002059    0.03098309
     atom    7 type  1   force =     0.00008852   -0.00004709    0.03050924
     atom    8 type  1   force =    -0.00005279   -0.00004595    0.03092933
     atom    9 type  1   force =     0.00002088    0.00000753    0.03116288
     atom   10 type  1   force =     0.00027416    0.00015480    0.03080579
     atom   11 type  1   force =    -0.00006286    0.00003911    0.03082111
     atom   12 type  1   force =    -0.00086232    0.00042356    0.03054470
     atom   13 type  1   force =     0.00005543    0.00004761    0.03087764
     atom   14 type  1   force =     0.00001824   -0.00002667    0.03088205
     atom   15 type  1   force =    -0.00012969   -0.00046203    0.03068307
     atom   16 type  1   force =     0.00013943    0.00007794    0.03085131
     atom   17 type  1   force =    -0.00002752   -0.00002160    0.03087983
     atom   18 type  1   force =    -0.00012848   -0.00023227    0.03075995
     atom   19 type  1   force =    -0.00012627   -0.00023253   -0.03114923
     atom   20 type  1   force =    -0.00002734   -0.00002114   -0.03103139
     atom   21 type  1   force =     0.00013969    0.00007879   -0.03105947
     atom   22 type  1   force =    -0.00013089   -0.00045997   -0.03122780
     atom   23 type  1   force =     0.00001859   -0.00002642   -0.03102930
     atom   24 type  1   force =     0.00005560    0.00004796   -0.03103358
     atom   25 type  1   force =    -0.00086227    0.00042180   -0.03136657
     atom   26 type  1   force =    -0.00006517    0.00003746   -0.03108865
     atom   27 type  1   force =     0.00027633    0.00015358   -0.03110450
     atom   28 type  1   force =     0.00001986    0.00000779   -0.03074896
     atom   29 type  1   force =    -0.00005288   -0.00004553   -0.03098261
     atom   30 type  1   force =     0.00008953   -0.00004709   -0.03140130
     atom   31 type  1   force =    -0.00001846    0.00002005   -0.03092861
     atom   32 type  1   force =    -0.00002544   -0.00001581   -0.03095762
     atom   33 type  1   force =     0.00005398    0.00006170   -0.03100751
     atom   34 type  1   force =     0.00001085   -0.00001723   -0.03090463
     atom   35 type  1   force =    -0.00002401   -0.00000352   -0.03095259
     atom   36 type  1   force =     0.00000719    0.00003986   -0.03107606
     atom   37 type  1   force =    -0.00352710    0.00000017   -0.00289277
     atom   38 type  1   force =    -0.00020730   -0.00015593    0.00027617
     atom   39 type  1   force =    -0.00020512   -0.00015513    0.00027489
     atom   40 type  1   force =     0.00016467    0.00021274    0.00040420
     atom   41 type  1   force =    -0.00010547   -0.00005821    0.00014644
     atom   42 type  1   force =    -0.00004530    0.00000024    0.00011292
     atom   43 type  1   force =     0.00016384    0.00021499    0.00040523
     atom   44 type  1   force =    -0.00004537   -0.00000031    0.00011264
     atom   45 type  1   force =    -0.00010512   -0.00005843    0.00014618
     atom   46 type  1   force =     0.00002935    0.00000006   -0.00004224
     atom   47 type  1   force =    -0.00001490   -0.00001731   -0.00006862
     atom   48 type  1   force =    -0.00001465   -0.00001746   -0.00006838
     atom   49 type  1   force =     0.00005125    0.00003813   -0.00002189
     atom   50 type  1   force =     0.00002073   -0.00002075   -0.00011499
     atom   51 type  1   force =    -0.00015105    0.00000019   -0.00014161
     atom   52 type  1   force =     0.00005100    0.00003792   -0.00002207
     atom   53 type  1   force =    -0.00015079   -0.00000024   -0.00014078
     atom   54 type  1   force =     0.00002107   -0.00002054   -0.00011492
     atom   55 type  2   force =     0.00031263   -0.00068744    0.17453521
     atom   56 type  2   force =    -0.00006784   -0.00005849    0.17461343
     atom   57 type  2   force =    -0.00001210    0.00002543    0.17466947
     atom   58 type  2   force =    -0.00000873    0.00006159    0.17462109
     atom   59 type  2   force =    -0.00003868   -0.00004401    0.17461188
     atom   60 type  2   force =     0.00003292    0.00003260    0.17464141
     atom   61 type  2   force =    -0.00104428    0.00078495    0.17408489
     atom   62 type  2   force =    -0.00011489   -0.00001693    0.17461628
     atom   63 type  2   force =     0.00014439   -0.00009563    0.17498362
     atom   64 type  2   force =     0.00006546    0.00002336    0.17452413
     atom   65 type  2   force =    -0.00005562   -0.00002383    0.17460471
     atom   66 type  2   force =    -0.00007940    0.00003649    0.17442345
     atom   67 type  2   force =     0.00004032    0.00004922    0.17454955
     atom   68 type  2   force =    -0.00002161   -0.00001305    0.17457670
     atom   69 type  2   force =    -0.00001529   -0.00001358    0.17451407
     atom   70 type  2   force =     0.00003688    0.00001683    0.17456092
     atom   71 type  2   force =    -0.00004458   -0.00003553    0.17456304
     atom   72 type  2   force =    -0.00000460   -0.00004017    0.17448704
     atom   73 type  2   force =    -0.00000404   -0.00004068   -0.17469590
     atom   74 type  2   force =    -0.00004423   -0.00003579   -0.17461966
     atom   75 type  2   force =     0.00003631    0.00001652   -0.17462163
     atom   76 type  2   force =    -0.00001531   -0.00001341   -0.17466809
     atom   77 type  2   force =    -0.00002105   -0.00001313   -0.17460598
     atom   78 type  2   force =     0.00004021    0.00004874   -0.17463364
     atom   79 type  2   force =    -0.00007909    0.00003714   -0.17475859
     atom   80 type  2   force =    -0.00005555   -0.00002291   -0.17457722
     atom   81 type  2   force =     0.00006570    0.00002377   -0.17465901
     atom   82 type  2   force =     0.00014829   -0.00009457   -0.17419878
     atom   83 type  2   force =    -0.00011448   -0.00001748   -0.17456463
     atom   84 type  2   force =    -0.00104620    0.00078058   -0.17510076
     atom   85 type  2   force =     0.00003234    0.00003252   -0.17454044
     atom   86 type  2   force =    -0.00003829   -0.00004424   -0.17456951
     atom   87 type  2   force =    -0.00000856    0.00006144   -0.17456034
     atom   88 type  2   force =    -0.00001221    0.00002614   -0.17451214
     atom   89 type  2   force =    -0.00006842   -0.00005765   -0.17456828
     atom   90 type  2   force =     0.00030911   -0.00068851   -0.17465060
     The ionic contribution  to forces
     atom    1 type  1   force =    -0.00221552    0.00341455   -0.61743866
     atom    2 type  1   force =     0.00206391    0.00143887   -0.61991523
     atom    3 type  1   force =    -0.00007212   -0.00020231   -0.62194808
     atom    4 type  1   force =     0.00035282   -0.00077404   -0.62117091
     atom    5 type  1   force =     0.00005921    0.00094149   -0.62145017
     atom    6 type  1   force =    -0.00042541   -0.00123290   -0.62093401
     atom    7 type  1   force =     0.00235099   -0.00263972   -0.61461719
     atom    8 type  1   force =     0.00169171   -0.00017069   -0.62130873
     atom    9 type  1   force =    -0.00355814   -0.00077839   -0.62025089
     atom   10 type  1   force =    -0.00669581   -0.01158788   -0.61728857
     atom   11 type  1   force =     0.00060652    0.00086489   -0.62413854
     atom   12 type  1   force =     0.00406114   -0.00285213   -0.62086112
     atom   13 type  1   force =     0.00021537   -0.00164897   -0.62275183
     atom   14 type  1   force =     0.00060244    0.00142166   -0.62238434
     atom   15 type  1   force =    -0.00088520    0.00199779   -0.62249521
     atom   16 type  1   force =    -0.00849764    0.00102487   -0.62680770
     atom   17 type  1   force =     0.00306816    0.00022158   -0.62257069
     atom   18 type  1   force =     0.01157711    0.01053454   -0.60782573
     atom   19 type  1   force =     0.01164701    0.01064297    0.63643535
     atom   20 type  1   force =     0.00308036    0.00022536    0.62159491
     atom   21 type  1   force =    -0.00845717    0.00099536    0.61728115
     atom   22 type  1   force =    -0.00089061    0.00199158    0.62165920
     atom   23 type  1   force =     0.00060366    0.00143185    0.62177593
     atom   24 type  1   force =     0.00021663   -0.00165144    0.62140868
     atom   25 type  1   force =     0.00407552   -0.00287087    0.62330434
     atom   26 type  1   force =     0.00062029    0.00086866    0.62002331
     atom   27 type  1   force =    -0.00676008   -0.01160930    0.62682970
     atom   28 type  1   force =    -0.00355451   -0.00078020    0.62393790
     atom   29 type  1   force =     0.00168210   -0.00016821    0.62285645
     atom   30 type  1   force =     0.00234445   -0.00261917    0.62951203
     atom   31 type  1   force =    -0.00042343   -0.00123228    0.62323675
     atom   32 type  1   force =     0.00005734    0.00093908    0.62271932
     atom   33 type  1   force =     0.00035070   -0.00076765    0.62299719
     atom   34 type  1   force =    -0.00007892   -0.00020056    0.62222448
     atom   35 type  1   force =     0.00205489    0.00142921    0.62424436
     atom   36 type  1   force =    -0.00219762    0.00340287    0.62672953
     atom   37 type  1   force =    -0.08335925    0.00000246   -0.06475030
     atom   38 type  1   force =     0.00964363    0.00000000   -0.00431411
     atom   39 type  1   force =     0.00962660    0.00000000   -0.00427513
     atom   40 type  1   force =    -0.00014757   -0.00566268   -0.00428481
     atom   41 type  1   force =    -0.00017460    0.00564890   -0.00430430
     atom   42 type  1   force =     0.00180382    0.00000397   -0.00155421
     atom   43 type  1   force =    -0.00017460   -0.00564890   -0.00430430
     atom   44 type  1   force =     0.00180382   -0.00000397   -0.00155421
     atom   45 type  1   force =    -0.00014757    0.00566268   -0.00428481
     atom   46 type  1   force =    -0.00124334    0.00000000    0.00486657
     atom   47 type  1   force =     0.00060987    0.00000000    0.00213453
     atom   48 type  1   force =     0.00060820    0.00000000    0.00212668
     atom   49 type  1   force =    -0.00022204   -0.00047833    0.00212864
     atom   50 type  1   force =    -0.00022169    0.00048111    0.00213256
     atom   51 type  1   force =     0.00044945    0.00000082    0.00129967
     atom   52 type  1   force =    -0.00022169   -0.00048110    0.00213256
     atom   53 type  1   force =     0.00044945   -0.00000082    0.00129967
     atom   54 type  1   force =    -0.00022204    0.00047833    0.00212864
     atom   55 type  2   force =    -0.01933548    0.02837597   -1.32031862
     atom   56 type  2   force =     0.00750326    0.00539988   -1.31696723
     atom   57 type  2   force =     0.00289289   -0.00272237   -1.32133369
     atom   58 type  2   force =     0.00105208   -0.00282854   -1.31825847
     atom   59 type  2   force =     0.00059220    0.00308656   -1.31869377
     atom   60 type  2   force =    -0.00183597   -0.00265161   -1.31915730
     atom   61 type  2   force =     0.03940977   -0.03397965   -1.29682052
     atom   62 type  2   force =     0.00594479   -0.00026897   -1.31847290
     atom   63 type  2   force =    -0.00982126    0.00543052   -1.34361076
     atom   64 type  2   force =    -0.00191318   -0.00224905   -1.31066359
     atom   65 type  2   force =     0.00002628    0.00025438   -1.31499318
     atom   66 type  2   force =     0.00180728   -0.00127935   -1.31331012
     atom   67 type  2   force =     0.00006945   -0.00098358   -1.31480713
     atom   68 type  2   force =     0.00033620    0.00082754   -1.31455495
     atom   69 type  2   force =    -0.00041147    0.00102809   -1.31414987
     atom   70 type  2   force =    -0.00275916    0.00048609   -1.31250685
     atom   71 type  2   force =     0.00177130    0.00015274   -1.31468261
     atom   72 type  2   force =     0.00114062    0.00176078   -1.30882508
     atom   73 type  2   force =     0.00114164    0.00177363    1.32424519
     atom   74 type  2   force =     0.00177819    0.00015551    1.31835945
     atom   75 type  2   force =    -0.00276620    0.00048728    1.32051623
     atom   76 type  2   force =    -0.00041445    0.00103016    1.31888794
     atom   77 type  2   force =     0.00033666    0.00083329    1.31848516
     atom   78 type  2   force =     0.00006950   -0.00098550    1.31823057
     atom   79 type  2   force =     0.00181336   -0.00128788    1.31974008
     atom   80 type  2   force =     0.00002935    0.00025457    1.31803940
     atom   81 type  2   force =    -0.00192629   -0.00225870    1.32237830
     atom   82 type  2   force =    -0.01008559    0.00531324    1.28951506
     atom   83 type  2   force =     0.00592781   -0.00026235    1.31456875
     atom   84 type  2   force =     0.03911958   -0.03359786    1.33615395
     atom   85 type  2   force =    -0.00183036   -0.00267414    1.31390113
     atom   86 type  2   force =     0.00058861    0.00308631    1.31435292
     atom   87 type  2   force =     0.00104898   -0.00281305    1.31479107
     atom   88 type  2   force =     0.00286770   -0.00272027    1.31169978
     atom   89 type  2   force =     0.00748192    0.00536863    1.31608874
     atom   90 type  2   force =    -0.01918055    0.02845473    1.31293663
     The local contribution  to forces
     atom    1 type  1   force =     0.00220927   -0.00346180    0.58654681
     atom    2 type  1   force =    -0.00203666   -0.00143344    0.58887135
     atom    3 type  1   force =     0.00005992    0.00022469    0.59085365
     atom    4 type  1   force =    -0.00041687    0.00070111    0.59018848
     atom    5 type  1   force =    -0.00002976   -0.00092461    0.59041247
     atom    6 type  1   force =     0.00044759    0.00120901    0.58986502
     atom    7 type  1   force =    -0.00246452    0.00270028    0.58409232
     atom    8 type  1   force =    -0.00163124    0.00022322    0.59029796
     atom    9 type  1   force =     0.00353076    0.00076490    0.58899319
     atom   10 type  1   force =     0.00635783    0.01137855    0.58643991
     atom   11 type  1   force =    -0.00053698   -0.00091167    0.59326184
     atom   12 type  1   force =    -0.00312044    0.00240086    0.59025410
     atom   13 type  1   force =    -0.00028344    0.00159014    0.59179939
     atom   14 type  1   force =    -0.00062153   -0.00139341    0.59142793
     atom   15 type  1   force =     0.00103989   -0.00149577    0.59175318
     atom   16 type  1   force =     0.00831854   -0.00111863    0.59587640
     atom   17 type  1   force =    -0.00303638   -0.00019480    0.59161587
     atom   18 type  1   force =    -0.01138836   -0.01023239    0.57705892
     atom   19 type  1   force =    -0.01146318   -0.01033733   -0.60512046
     atom   20 type  1   force =    -0.00304929   -0.00019681   -0.59046603
     atom   21 type  1   force =     0.00828202   -0.00108818   -0.58613025
     atom   22 type  1   force =     0.00104722   -0.00149317   -0.59031873
     atom   23 type  1   force =    -0.00062507   -0.00140190   -0.59064936
     atom   24 type  1   force =    -0.00028350    0.00159451   -0.59027850
     atom   25 type  1   force =    -0.00313714    0.00241775   -0.59182830
     atom   26 type  1   force =    -0.00054620   -0.00091803   -0.58881811
     atom   27 type  1   force =     0.00641940    0.01139979   -0.59559683
     atom   28 type  1   force =     0.00352444    0.00076895   -0.59311211
     atom   29 type  1   force =    -0.00162128    0.00022358   -0.59178320
     atom   30 type  1   force =    -0.00245572    0.00268215   -0.59795510
     atom   31 type  1   force =     0.00044559    0.00120669   -0.59222323
     atom   32 type  1   force =    -0.00002874   -0.00092083   -0.59167437
     atom   33 type  1   force =    -0.00041366    0.00069575   -0.59189698
     atom   34 type  1   force =     0.00006467    0.00021940   -0.59123604
     atom   35 type  1   force =    -0.00202544   -0.00142718   -0.59320519
     atom   36 type  1   force =     0.00219128   -0.00345188   -0.59553735
     atom   37 type  1   force =     0.08634241   -0.00000180    0.06716794
     atom   38 type  1   force =    -0.00939265    0.00019317    0.00397436
     atom   39 type  1   force =    -0.00937489    0.00019233    0.00393636
     atom   40 type  1   force =    -0.00005582    0.00540144    0.00378655
     atom   41 type  1   force =     0.00030292   -0.00557827    0.00412444
     atom   42 type  1   force =    -0.00174775   -0.00000264    0.00141566
     atom   43 type  1   force =    -0.00002940    0.00538409    0.00380453
     atom   44 type  1   force =    -0.00174788    0.00000205    0.00141697
     atom   45 type  1   force =     0.00027722   -0.00559282    0.00410436
     atom   46 type  1   force =     0.00120889    0.00000054   -0.00481525
     atom   47 type  1   force =    -0.00059366    0.00002297   -0.00205464
     atom   48 type  1   force =    -0.00058955    0.00002281   -0.00204655
     atom   49 type  1   force =     0.00016098    0.00043302   -0.00209922
     atom   50 type  1   force =     0.00019834   -0.00045704   -0.00200135
     atom   51 type  1   force =    -0.00027632    0.00000072   -0.00114060
     atom   52 type  1   force =     0.00015933    0.00043452   -0.00210402
     atom   53 type  1   force =    -0.00027613   -0.00000122   -0.00114194
     atom   54 type  1   force =     0.00019938   -0.00045633   -0.00199805
     atom   55 type  2   force =     0.01903008   -0.02762069    1.15117952
     atom   56 type  2   force =    -0.00745499   -0.00535145    1.14770047
     atom   57 type  2   force =    -0.00287898    0.00270329    1.15202369
     atom   58 type  2   force =    -0.00103903    0.00278616    1.14898259
     atom   59 type  2   force =    -0.00056650   -0.00305679    1.14942762
     atom   60 type  2   force =     0.00180853    0.00262906    1.14986880
     atom   61 type  2   force =    -0.03817369    0.03308590    1.12821270
     atom   62 type  2   force =    -0.00586292    0.00027427    1.14920251
     atom   63 type  2   force =     0.00975424   -0.00529647    1.17394655
     atom   64 type  2   force =     0.00187948    0.00223782    1.14146824
     atom   65 type  2   force =     0.00000336   -0.00023804    1.14574280
     atom   66 type  2   force =    -0.00177520    0.00127156    1.14417480
     atom   67 type  2   force =    -0.00009571    0.00094551    1.14559292
     atom   68 type  2   force =    -0.00032017   -0.00081971    1.14532224
     atom   69 type  2   force =     0.00042151   -0.00102961    1.14495724
     atom   70 type  2   force =     0.00273389   -0.00049317    1.14328301
     atom   71 type  2   force =    -0.00173675   -0.00013047    1.14545900
     atom   72 type  2   force =    -0.00113778   -0.00174168    1.13965796
     atom   73 type  2   force =    -0.00114422   -0.00175137   -1.15492090
     atom   74 type  2   force =    -0.00174417   -0.00012883   -1.14909201
     atom   75 type  2   force =     0.00274714   -0.00049169   -1.15124954
     atom   76 type  2   force =     0.00042502   -0.00103347   -1.14959021
     atom   77 type  2   force =    -0.00032228   -0.00082159   -1.14922675
     atom   78 type  2   force =    -0.00009453    0.00095158   -1.14895364
     atom   79 type  2   force =    -0.00178539    0.00127349   -1.15038469
     atom   80 type  2   force =     0.00000456   -0.00024522   -1.14879943
     atom   81 type  2   force =     0.00189263    0.00224491   -1.15308283
     atom   82 type  2   force =     0.01000732   -0.00517782   -1.12068607
     atom   83 type  2   force =    -0.00584571    0.00027296   -1.14534774
     atom   84 type  2   force =    -0.03788905    0.03271880   -1.16627438
     atom   85 type  2   force =     0.00180314    0.00264868   -1.14469699
     atom   86 type  2   force =    -0.00056366   -0.00305280   -1.14512668
     atom   87 type  2   force =    -0.00103532    0.00277351   -1.14557483
     atom   88 type  2   force =    -0.00285805    0.00269459   -1.14251731
     atom   89 type  2   force =    -0.00742815   -0.00532638   -1.14686281
     atom   90 type  2   force =     0.01887813   -0.02770179   -1.14357977
     The core correction contribution to forces
     atom    1 type  1   force =     0.00000000    0.00000000    0.00000000
     atom    2 type  1   force =     0.00000000    0.00000000    0.00000000
     atom    3 type  1   force =     0.00000000    0.00000000    0.00000000
     atom    4 type  1   force =     0.00000000    0.00000000    0.00000000
     atom    5 type  1   force =     0.00000000    0.00000000    0.00000000
     atom    6 type  1   force =     0.00000000    0.00000000    0.00000000
     atom    7 type  1   force =     0.00000000    0.00000000    0.00000000
     atom    8 type  1   force =     0.00000000    0.00000000    0.00000000
     atom    9 type  1   force =     0.00000000    0.00000000    0.00000000
     atom   10 type  1   force =     0.00000000    0.00000000    0.00000000
     atom   11 type  1   force =     0.00000000    0.00000000    0.00000000
     atom   12 type  1   force =     0.00000000    0.00000000    0.00000000
     atom   13 type  1   force =     0.00000000    0.00000000    0.00000000
     atom   14 type  1   force =     0.00000000    0.00000000    0.00000000
     atom   15 type  1   force =     0.00000000    0.00000000    0.00000000
     atom   16 type  1   force =     0.00000000    0.00000000    0.00000000
     atom   17 type  1   force =     0.00000000    0.00000000    0.00000000
     atom   18 type  1   force =     0.00000000    0.00000000    0.00000000
     atom   19 type  1   force =     0.00000000    0.00000000    0.00000000
     atom   20 type  1   force =     0.00000000    0.00000000    0.00000000
     atom   21 type  1   force =     0.00000000    0.00000000    0.00000000
     atom   22 type  1   force =     0.00000000    0.00000000    0.00000000
     atom   23 type  1   force =     0.00000000    0.00000000    0.00000000
     atom   24 type  1   force =     0.00000000    0.00000000    0.00000000
     atom   25 type  1   force =     0.00000000    0.00000000    0.00000000
     atom   26 type  1   force =     0.00000000    0.00000000    0.00000000
     atom   27 type  1   force =     0.00000000    0.00000000    0.00000000
     atom   28 type  1   force =     0.00000000    0.00000000    0.00000000
     atom   29 type  1   force =     0.00000000    0.00000000    0.00000000
     atom   30 type  1   force =     0.00000000    0.00000000    0.00000000
     atom   31 type  1   force =     0.00000000    0.00000000    0.00000000
     atom   32 type  1   force =     0.00000000    0.00000000    0.00000000
     atom   33 type  1   force =     0.00000000    0.00000000    0.00000000
     atom   34 type  1   force =     0.00000000    0.00000000    0.00000000
     atom   35 type  1   force =     0.00000000    0.00000000    0.00000000
     atom   36 type  1   force =     0.00000000    0.00000000    0.00000000
     atom   37 type  1   force =     0.00000000    0.00000000    0.00000000
     atom   38 type  1   force =     0.00000000    0.00000000    0.00000000
     atom   39 type  1   force =     0.00000000    0.00000000    0.00000000
     atom   40 type  1   force =     0.00000000    0.00000000    0.00000000
     atom   41 type  1   force =     0.00000000    0.00000000    0.00000000
     atom   42 type  1   force =     0.00000000    0.00000000    0.00000000
     atom   43 type  1   force =     0.00000000    0.00000000    0.00000000
     atom   44 type  1   force =     0.00000000    0.00000000    0.00000000
     atom   45 type  1   force =     0.00000000    0.00000000    0.00000000
     atom   46 type  1   force =     0.00000000    0.00000000    0.00000000
     atom   47 type  1   force =     0.00000000    0.00000000    0.00000000
     atom   48 type  1   force =     0.00000000    0.00000000    0.00000000
     atom   49 type  1   force =     0.00000000    0.00000000    0.00000000
     atom   50 type  1   force =     0.00000000    0.00000000    0.00000000
     atom   51 type  1   force =     0.00000000    0.00000000    0.00000000
     atom   52 type  1   force =     0.00000000    0.00000000    0.00000000
     atom   53 type  1   force =     0.00000000    0.00000000    0.00000000
     atom   54 type  1   force =     0.00000000    0.00000000    0.00000000
     atom   55 type  2   force =    -0.00000848    0.00001482   -0.00538091
     atom   56 type  2   force =     0.00000326    0.00000265   -0.00538003
     atom   57 type  2   force =     0.00000021   -0.00000080   -0.00538262
     atom   58 type  2   force =    -0.00000038   -0.00000372   -0.00538005
     atom   59 type  2   force =     0.00000229    0.00000214   -0.00537990
     atom   60 type  2   force =    -0.00000126   -0.00000178   -0.00538133
     atom   61 type  2   force =     0.00001363   -0.00001281   -0.00537437
     atom   62 type  2   force =     0.00000603    0.00000152   -0.00537995
     atom   63 type  2   force =    -0.00001153   -0.00000179   -0.00538772
     atom   64 type  2   force =    -0.00000507   -0.00000172   -0.00537571
     atom   65 type  2   force =     0.00000377    0.00000169   -0.00538032
     atom   66 type  2   force =     0.00000758   -0.00000379   -0.00536893
     atom   67 type  2   force =    -0.00000241   -0.00000244   -0.00537708
     atom   68 type  2   force =     0.00000101    0.00000041   -0.00537863
     atom   69 type  2   force =     0.00000094    0.00000218   -0.00537461
     atom   70 type  2   force =    -0.00000240   -0.00000158   -0.00537743
     atom   71 type  2   force =     0.00000176    0.00000195   -0.00537786
     atom   72 type  2   force =     0.00000069    0.00000331   -0.00537399
     atom   73 type  2   force =     0.00000064    0.00000337    0.00538450
     atom   74 type  2   force =     0.00000175    0.00000199    0.00538060
     atom   75 type  2   force =    -0.00000233   -0.00000155    0.00538099
     atom   76 type  2   force =     0.00000095    0.00000213    0.00538379
     atom   77 type  2   force =     0.00000099    0.00000044    0.00537981
     atom   78 type  2   force =    -0.00000239   -0.00000239    0.00538138
     atom   79 type  2   force =     0.00000754   -0.00000385    0.00538951
     atom   80 type  2   force =     0.00000382    0.00000162    0.00537809
     atom   81 type  2   force =    -0.00000509   -0.00000176    0.00538275
     atom   82 type  2   force =    -0.00001160   -0.00000177    0.00537072
     atom   83 type  2   force =     0.00000603    0.00000159    0.00537849
     atom   84 type  2   force =     0.00001477   -0.00001333    0.00538499
     atom   85 type  2   force =    -0.00000124   -0.00000181    0.00537714
     atom   86 type  2   force =     0.00000230    0.00000217    0.00537860
     atom   87 type  2   force =    -0.00000039   -0.00000372    0.00537840
     atom   88 type  2   force =     0.00000019   -0.00000087    0.00537582
     atom   89 type  2   force =     0.00000332    0.00000258    0.00537846
     atom   90 type  2   force =    -0.00000843    0.00001494    0.00537771
     The Hubbard contrib.    to forces
     atom    1 type  1   force =     0.00000000    0.00000000    0.00000000
     atom    2 type  1   force =     0.00000000    0.00000000    0.00000000
     atom    3 type  1   force =     0.00000000    0.00000000    0.00000000
     atom    4 type  1   force =     0.00000000    0.00000000    0.00000000
     atom    5 type  1   force =     0.00000000    0.00000000    0.00000000
     atom    6 type  1   force =     0.00000000    0.00000000    0.00000000
     atom    7 type  1   force =     0.00000000    0.00000000    0.00000000
     atom    8 type  1   force =     0.00000000    0.00000000    0.00000000
     atom    9 type  1   force =     0.00000000    0.00000000    0.00000000
     atom   10 type  1   force =     0.00000000    0.00000000    0.00000000
     atom   11 type  1   force =     0.00000000    0.00000000    0.00000000
     atom   12 type  1   force =     0.00000000    0.00000000    0.00000000
     atom   13 type  1   force =     0.00000000    0.00000000    0.00000000
     atom   14 type  1   force =     0.00000000    0.00000000    0.00000000
     atom   15 type  1   force =     0.00000000    0.00000000    0.00000000
     atom   16 type  1   force =     0.00000000    0.00000000    0.00000000
     atom   17 type  1   force =     0.00000000    0.00000000    0.00000000
     atom   18 type  1   force =     0.00000000    0.00000000    0.00000000
     atom   19 type  1   force =     0.00000000    0.00000000    0.00000000
     atom   20 type  1   force =     0.00000000    0.00000000    0.00000000
     atom   21 type  1   force =     0.00000000    0.00000000    0.00000000
     atom   22 type  1   force =     0.00000000    0.00000000    0.00000000
     atom   23 type  1   force =     0.00000000    0.00000000    0.00000000
     atom   24 type  1   force =     0.00000000    0.00000000    0.00000000
     atom   25 type  1   force =     0.00000000    0.00000000    0.00000000
     atom   26 type  1   force =     0.00000000    0.00000000    0.00000000
     atom   27 type  1   force =     0.00000000    0.00000000    0.00000000
     atom   28 type  1   force =     0.00000000    0.00000000    0.00000000
     atom   29 type  1   force =     0.00000000    0.00000000    0.00000000
     atom   30 type  1   force =     0.00000000    0.00000000    0.00000000
     atom   31 type  1   force =     0.00000000    0.00000000    0.00000000
     atom   32 type  1   force =     0.00000000    0.00000000    0.00000000
     atom   33 type  1   force =     0.00000000    0.00000000    0.00000000
     atom   34 type  1   force =     0.00000000    0.00000000    0.00000000
     atom   35 type  1   force =     0.00000000    0.00000000    0.00000000
     atom   36 type  1   force =     0.00000000    0.00000000    0.00000000
     atom   37 type  1   force =     0.00000000    0.00000000    0.00000000
     atom   38 type  1   force =     0.00000000    0.00000000    0.00000000
     atom   39 type  1   force =     0.00000000    0.00000000    0.00000000
     atom   40 type  1   force =     0.00000000    0.00000000    0.00000000
     atom   41 type  1   force =     0.00000000    0.00000000    0.00000000
     atom   42 type  1   force =     0.00000000    0.00000000    0.00000000
     atom   43 type  1   force =     0.00000000    0.00000000    0.00000000
     atom   44 type  1   force =     0.00000000    0.00000000    0.00000000
     atom   45 type  1   force =     0.00000000    0.00000000    0.00000000
     atom   46 type  1   force =     0.00000000    0.00000000    0.00000000
     atom   47 type  1   force =     0.00000000    0.00000000    0.00000000
     atom   48 type  1   force =     0.00000000    0.00000000    0.00000000
     atom   49 type  1   force =     0.00000000    0.00000000    0.00000000
     atom   50 type  1   force =     0.00000000    0.00000000    0.00000000
     atom   51 type  1   force =     0.00000000    0.00000000    0.00000000
     atom   52 type  1   force =     0.00000000    0.00000000    0.00000000
     atom   53 type  1   force =     0.00000000    0.00000000    0.00000000
     atom   54 type  1   force =     0.00000000    0.00000000    0.00000000
     atom   55 type  2   force =     0.00000000    0.00000000    0.00000000
     atom   56 type  2   force =     0.00000000    0.00000000    0.00000000
     atom   57 type  2   force =     0.00000000    0.00000000    0.00000000
     atom   58 type  2   force =     0.00000000    0.00000000    0.00000000
     atom   59 type  2   force =     0.00000000    0.00000000    0.00000000
     atom   60 type  2   force =     0.00000000    0.00000000    0.00000000
     atom   61 type  2   force =     0.00000000    0.00000000    0.00000000
     atom   62 type  2   force =     0.00000000    0.00000000    0.00000000
     atom   63 type  2   force =     0.00000000    0.00000000    0.00000000
     atom   64 type  2   force =     0.00000000    0.00000000    0.00000000
     atom   65 type  2   force =     0.00000000    0.00000000    0.00000000
     atom   66 type  2   force =     0.00000000    0.00000000    0.00000000
     atom   67 type  2   force =     0.00000000    0.00000000    0.00000000
     atom   68 type  2   force =     0.00000000    0.00000000    0.00000000
     atom   69 type  2   force =     0.00000000    0.00000000    0.00000000
     atom   70 type  2   force =     0.00000000    0.00000000    0.00000000
     atom   71 type  2   force =     0.00000000    0.00000000    0.00000000
     atom   72 type  2   force =     0.00000000    0.00000000    0.00000000
     atom   73 type  2   force =     0.00000000    0.00000000    0.00000000
     atom   74 type  2   force =     0.00000000    0.00000000    0.00000000
     atom   75 type  2   force =     0.00000000    0.00000000    0.00000000
     atom   76 type  2   force =     0.00000000    0.00000000    0.00000000
     atom   77 type  2   force =     0.00000000    0.00000000    0.00000000
     atom   78 type  2   force =     0.00000000    0.00000000    0.00000000
     atom   79 type  2   force =     0.00000000    0.00000000    0.00000000
     atom   80 type  2   force =     0.00000000    0.00000000    0.00000000
     atom   81 type  2   force =     0.00000000    0.00000000    0.00000000
     atom   82 type  2   force =     0.00000000    0.00000000    0.00000000
     atom   83 type  2   force =     0.00000000    0.00000000    0.00000000
     atom   84 type  2   force =     0.00000000    0.00000000    0.00000000
     atom   85 type  2   force =     0.00000000    0.00000000    0.00000000
     atom   86 type  2   force =     0.00000000    0.00000000    0.00000000
     atom   87 type  2   force =     0.00000000    0.00000000    0.00000000
     atom   88 type  2   force =     0.00000000    0.00000000    0.00000000
     atom   89 type  2   force =     0.00000000    0.00000000    0.00000000
     atom   90 type  2   force =     0.00000000    0.00000000    0.00000000
     The SCF correction term to forces
     atom    1 type  1   force =    -0.00000051   -0.00000065   -0.00000182
     atom    2 type  1   force =     0.00000190   -0.00000151   -0.00000170
     atom    3 type  1   force =    -0.00000141   -0.00000206   -0.00000109
     atom    4 type  1   force =     0.00000025    0.00000098   -0.00000196
     atom    5 type  1   force =    -0.00000007    0.00000163   -0.00000200
     atom    6 type  1   force =    -0.00000021   -0.00000070   -0.00000159
     atom    7 type  1   force =     0.00000154    0.00000042   -0.00000183
     atom    8 type  1   force =     0.00000067    0.00000134   -0.00000136
     atom    9 type  1   force =    -0.00000214    0.00000058   -0.00000113
     atom   10 type  1   force =    -0.00000014   -0.00000104   -0.00000176
     atom   11 type  1   force =     0.00000132   -0.00000202   -0.00000140
     atom   12 type  1   force =    -0.00000129   -0.00000238   -0.00000155
     atom   13 type  1   force =     0.00000051    0.00000156   -0.00000133
     atom   14 type  1   force =    -0.00000036    0.00000173   -0.00000140
     atom   15 type  1   force =    -0.00000015   -0.00000014   -0.00000155
     atom   16 type  1   force =     0.00000171    0.00000063   -0.00000126
     atom   17 type  1   force =     0.00000031    0.00000104   -0.00000097
     atom   18 type  1   force =    -0.00000187    0.00000060   -0.00000158
     atom   19 type  1   force =     0.00000160   -0.00000164    0.00000212
     atom   20 type  1   force =     0.00000075   -0.00000122    0.00000167
     atom   21 type  1   force =    -0.00000226   -0.00000124    0.00000216
     atom   22 type  1   force =    -0.00000060    0.00000123    0.00000209
     atom   23 type  1   force =     0.00000137   -0.00000014    0.00000207
     atom   24 type  1   force =    -0.00000076   -0.00000060    0.00000233
     atom   25 type  1   force =     0.00000078    0.00000146    0.00000185
     atom   26 type  1   force =    -0.00000077    0.00000214    0.00000153
     atom   27 type  1   force =    -0.00000005    0.00000004    0.00000213
     atom   28 type  1   force =     0.00000155   -0.00000180    0.00000142
     atom   29 type  1   force =     0.00000047   -0.00000176    0.00000071
     atom   30 type  1   force =    -0.00000195   -0.00000178    0.00000086
     atom   31 type  1   force =    -0.00000019    0.00000144    0.00000163
     atom   32 type  1   force =     0.00000092    0.00000001    0.00000149
     atom   33 type  1   force =    -0.00000075   -0.00000031    0.00000109
     atom   34 type  1   force =     0.00000096    0.00000174    0.00000148
     atom   35 type  1   force =    -0.00000083    0.00000206    0.00000124
     atom   36 type  1   force =    -0.00000023    0.00000041    0.00000127
     atom   37 type  1   force =    -0.00000012   -0.00000076    0.00000035
     atom   38 type  1   force =     0.00000162   -0.00000067    0.00000002
     atom   39 type  1   force =    -0.00000164   -0.00000074    0.00000053
     atom   40 type  1   force =    -0.00000087   -0.00000027    0.00000067
     atom   41 type  1   force =     0.00000093   -0.00000010   -0.00000001
     atom   42 type  1   force =    -0.00000001   -0.00000164    0.00000107
     atom   43 type  1   force =     0.00000066    0.00000086    0.00000097
     atom   44 type  1   force =     0.00000019    0.00000232    0.00000010
     atom   45 type  1   force =    -0.00000082    0.00000095    0.00000086
     atom   46 type  1   force =    -0.00000058   -0.00000062   -0.00000029
     atom   47 type  1   force =     0.00000165   -0.00000030   -0.00000038
     atom   48 type  1   force =    -0.00000116    0.00000003   -0.00000089
     atom   49 type  1   force =    -0.00000137   -0.00000093   -0.00000109
     atom   50 type  1   force =     0.00000086   -0.00000057   -0.00000094
     atom   51 type  1   force =     0.00000054   -0.00000177   -0.00000099
     atom   52 type  1   force =     0.00000026    0.00000058   -0.00000002
     atom   53 type  1   force =     0.00000004    0.00000234   -0.00000056
     atom   54 type  1   force =    -0.00000026    0.00000124   -0.00000040
     atom   55 type  2   force =    -0.00000112   -0.00000137    0.00000419
     atom   56 type  2   force =     0.00000347   -0.00000297    0.00000418
     atom   57 type  2   force =    -0.00000260   -0.00000346    0.00000480
     atom   58 type  2   force =    -0.00000002    0.00000218    0.00000424
     atom   59 type  2   force =    -0.00000001    0.00000332    0.00000390
     atom   60 type  2   force =     0.00000003   -0.00000069    0.00000455
     atom   61 type  2   force =     0.00000266    0.00000010    0.00000380
     atom   62 type  2   force =     0.00000093    0.00000214    0.00000349
     atom   63 type  2   force =    -0.00000352    0.00000067    0.00000389
     atom   64 type  2   force =    -0.00000110   -0.00000217    0.00000192
     atom   65 type  2   force =     0.00000360   -0.00000298    0.00000242
     atom   66 type  2   force =    -0.00000239   -0.00000405    0.00000062
     atom   67 type  2   force =    -0.00000009    0.00000219    0.00000224
     atom   68 type  2   force =     0.00000041    0.00000363    0.00000263
     atom   69 type  2   force =    -0.00000032   -0.00000033    0.00000144
     atom   70 type  2   force =     0.00000208    0.00000044    0.00000268
     atom   71 type  2   force =     0.00000151    0.00000254    0.00000258
     atom   72 type  2   force =    -0.00000324    0.00000088    0.00000157
     atom   73 type  2   force =     0.00000253   -0.00000228   -0.00000435
     atom   74 type  2   force =     0.00000207   -0.00000200   -0.00000329
     atom   75 type  2   force =    -0.00000454   -0.00000228   -0.00000297
     atom   76 type  2   force =    -0.00000093    0.00000163   -0.00000422
     atom   77 type  2   force =     0.00000222   -0.00000048   -0.00000341
     atom   78 type  2   force =    -0.00000148   -0.00000223   -0.00000368
     atom   79 type  2   force =     0.00000208    0.00000279   -0.00000490
     atom   80 type  2   force =    -0.00000104    0.00000434   -0.00000319
     atom   81 type  2   force =    -0.00000122    0.00000040   -0.00000357
     atom   82 type  2   force =     0.00000324   -0.00000280   -0.00000325
     atom   83 type  2   force =     0.00000025   -0.00000353   -0.00000291
     atom   84 type  2   force =    -0.00000310   -0.00000283   -0.00000333
     atom   85 type  2   force =     0.00000009    0.00000270   -0.00000295
     atom   86 type  2   force =     0.00000061   -0.00000065   -0.00000347
     atom   87 type  2   force =    -0.00000082   -0.00000057   -0.00000280
     atom   88 type  2   force =     0.00000231    0.00000341   -0.00000289
     atom   89 type  2   force =    -0.00000239    0.00000328   -0.00000330
     atom   90 type  2   force =    -0.00000009    0.00000102   -0.00000317

     Total force =     0.001079     Total SCF correction =     0.000032


     Computing stress (Cartesian axis) and pressure

          total   stress  (Ry/bohr**3)                   (kbar)     P=       -0.09
  -0.00000102  -0.00000000   0.00000000           -0.15       -0.00        0.00
  -0.00000000  -0.00000102  -0.00000000           -0.00       -0.15       -0.00
   0.00000000  -0.00000000   0.00000019            0.00       -0.00        0.03

     kinetic stress (kbar)  38987.12      0.00      0.00
                                0.00  38987.12     -0.00
                                0.00     -0.00  39002.78

     local   stress (kbar)  -5643.67      0.02     -0.01
                                0.02  -5643.68      0.01
                               -0.01      0.01  -6592.19

     nonloc. stress (kbar) -19072.55     -0.00      0.00
                               -0.00 -19072.55     -0.00
                                0.00     -0.00 -19085.08

     hartree stress (kbar)  10902.38     -0.01      0.00
                               -0.01  10902.38     -0.00
                                0.00     -0.00  11382.19

     exc-cor stress (kbar)   3414.54      0.00      0.00
                                0.00   3414.54      0.00
                                0.00      0.00   3414.54

     corecor stress (kbar)  -8552.07      0.00     -0.00
                                0.00  -8552.07      0.00
                               -0.00      0.00  -8552.46

     ewald   stress (kbar) -20035.88     -0.01      0.01
                               -0.01 -20035.88     -0.01
                                0.01     -0.01 -19569.75

     hubbard stress (kbar)      0.00      0.00      0.00
                                0.00      0.00      0.00
                                0.00      0.00      0.00

     DFT-D   stress (kbar)      0.00      0.00      0.00
                                0.00      0.00      0.00
                                0.00      0.00      0.00

     XDM     stress (kbar)      0.00      0.00      0.00
                                0.00      0.00      0.00
                                0.00      0.00      0.00

     dft-nl  stress (kbar)      0.00      0.00      0.00
                                0.00      0.00      0.00
                                0.00      0.00      0.00

     TS-vdW  stress (kbar)      0.00      0.00      0.00
                                0.00      0.00      0.00
                                0.00      0.00      0.00

     MDB     stress (kbar)      0.00      0.00      0.00
                                0.00      0.00      0.00
                                0.00      0.00      0.00

     3D-RISM stress (kbar)      0.00      0.00      0.00
                                0.00      0.00      0.00
                                0.00      0.00      0.00

     Message from routine punch:
     Nothing written, as per user request (disk_io='none')
 
     init_run     :    122.78s CPU    128.74s WALL (       1 calls)
     electrons    :   6568.37s CPU   6664.71s WALL (       1 calls)
     forces       :     44.35s CPU     44.95s WALL (       1 calls)
     stress       :    148.87s CPU    151.18s WALL (       1 calls)

     Called by init_run:
     wfcinit      :    119.66s CPU    125.21s WALL (       1 calls)
     wfcinit:atom :      0.56s CPU      0.85s WALL (      12 calls)
     wfcinit:wfcr :    117.17s CPU    122.05s WALL (      12 calls)
     potinit      :      0.37s CPU      0.45s WALL (       1 calls)
     hinit0       :      0.15s CPU      0.37s WALL (       1 calls)

     Called by electrons:
     c_bands      :   5967.71s CPU   6055.55s WALL (      17 calls)
     sum_band     :    592.66s CPU    599.56s WALL (      17 calls)
     v_of_rho     :      5.52s CPU      5.56s WALL (      17 calls)
     v_h          :      4.96s CPU      4.99s WALL (      17 calls)
     v_xc         :      0.59s CPU      0.59s WALL (      19 calls)
     mix_rho      :      1.23s CPU      1.33s WALL (      17 calls)

     Called by c_bands:
     init_us_2    :     49.73s CPU     50.36s WALL (     444 calls)
     cegterg      :   5147.97s CPU   5225.20s WALL (     204 calls)

     Called by sum_band:
     sum_band:wei :      0.27s CPU      0.28s WALL (      17 calls)
     sum_band:loo :    583.70s CPU    590.50s WALL (      17 calls)
     sum_band:buf :     10.45s CPU     10.69s WALL (     204 calls)
     sum_band:ini :     22.82s CPU     23.03s WALL (     204 calls)

     Called by *egterg:
     cdiaghg      :    362.50s CPU    371.38s WALL (    1005 calls)
     cegterg:over :    476.14s CPU    481.27s WALL (     813 calls)
     cegterg:upda :    445.54s CPU    454.65s WALL (     813 calls)
     cegterg:last :    655.84s CPU    661.31s WALL (     395 calls)
     cdiaghg:chol :     20.97s CPU     25.14s WALL (    1005 calls)
     cdiaghg:inve :      2.20s CPU      3.47s WALL (    1005 calls)
     cdiaghg:para :     35.81s CPU     36.58s WALL (    2010 calls)
     h_psi        :   3120.44s CPU   3164.45s WALL (    1029 calls)
     g_psi        :      9.05s CPU      9.15s WALL (     813 calls)

     Called by h_psi:
     h_psi:calbec :    392.14s CPU    398.41s WALL (    1029 calls)
     vloc_psi     :   2325.38s CPU   2349.59s WALL (    1029 calls)
                                        0.00s GPU  (    1029 calls)
     add_vuspsi   :    384.94s CPU    388.25s WALL (    1029 calls)

     General routines
     calbec       :    555.33s CPU    563.63s WALL (    1233 calls)
     fft          :      7.08s CPU      7.36s WALL (      59 calls)
     ffts         :      1.76s CPU      1.78s WALL (      17 calls)
     fftw         :   2413.78s CPU   2438.46s WALL (  727474 calls)
 
     Parallel routines
 
     PWSCF        :      1h55m CPU      1h56m WALL

 
   This run was terminated on:  19: 0:14  23Aug2026            

=------------------------------------------------------------------------------=
   JOB DONE.
=------------------------------------------------------------------------------=
