LAMMPS (24 Mar 2022)
# Compute elastic constant tensor for a crystal at finite temperature
#
# WARNING: This script attempts to measure small differences in
# statistical averages generated by finite temperature MD simulations.
# This creates many more opportunities for errors to occur, compared
# to the zero temperature version provided in examples/ELASTIC.
# Hence, it is always a good idea to start with the zero temperature
# calculation, before attempting to use this script.
#
# Written by Aidan Thompson (Sandia, athomps@sandia.gov)
#
#  This script uses the following three include files.
#
#   init.mod      (must be modified for different crystal structures)
# 	       	  Define units, MD parameters, deformation parameters,
#		  and initial configuration of the atoms and simulation cell.
#
#
#   potential.mod    (must be modified for different pair styles)
# 		     Define pair style and other attributes
#		     not stored in restart file
#
#
#   displace.mod    (displace.mod should not need to be modified)
# 		    Perform positive and negative box displacements
# 		    in direction ${dir} and size ${up}.
# 		    It uses the resultant changes
#		    in stress to compute one
# 		    row of the elastic stiffness tensor
#
#		    Inputs variables:
#		    	   dir = the Voigt deformation component
#		    		    (1,2,3,4,5,6)
#		    Global constants:
#       	    	   up = the deformation magnitude (strain units)
#       		   cfac = conversion from LAMMPS pressure units to
#               	   output units for elastic constants
#
#
#  To run this on a different system, it should only be necessary to
#  modify the files init.mod and potential.mod. In order to calculate
#  the elastic constants correctly, care must be taken to specify
#  the correct units in init.mod (units, cfac and cunits). It is also
#  important to verify that the MD sampling of stress components
#  is generating accurate statistical averages.
#  One indication of this is that the elastic constants are insensitive
#  to the choice of the variable ${up} in init.mod. Another is to
#  check for finite size effects.
#

include init.mod
# NOTE: This script can be modified for different atomic structures,
# units, etc. See in.elastic for more info.
#

# Define the finite deformation size. Try several values of this
# variable to verify that results do not depend on it.
variable up equal 2.0e-2

# metal units, elastic constants in GPa
units		metal
variable cfac equal 1.0e-4
variable cunits string GPa

# Define MD parameters
variable nevery equal 10                  # sampling interval
variable nrepeat equal 10                 # number of samples
variable nfreq equal ${nevery}*${nrepeat} # length of one average
variable nfreq equal 10*${nrepeat} 
variable nfreq equal 10*10 
variable nthermo equal ${nfreq}           # interval for thermo output
variable nthermo equal 100           
variable nequil equal 10*${nthermo}       # length of equilibration run
variable nequil equal 10*100       
variable nrun equal 3*${nthermo}          # length of equilibrated run
variable nrun equal 3*100          


variable temp equal 900.0                # temperature of initial sample


variable timestep equal 0.001             # timestep
variable adiabatic equal 2                # adiabatic (1) or isothermal (2)
variable tdamp equal 0.01                 # time constant for thermostat
variable seed equal 123457                # seed for thermostat

# generate the box and atom positions using a diamond lattice
boundary	p p p

lattice custom 1 	       a1 4.604277901 0.0 0.0 	       a2 -2.30213895 3.987421628 -0.0                a3 0.0 0.0 7.276386111                basis 0.3333333299 0.6666666700 0.6284199547                basis 0.6666666700 0.3333333300 0.3715800453                basis 0.0000000000 0.0000000000 0.0000000000                basis 0.3333333299 0.6666666700 0.2196782529                basis 0.6666666700 0.3333333300 0.7803217471
Lattice spacing in x,y,z = 6.9064169 3.9874216 7.2763861


# ---------- triclinic region consistent with a1,a2,a3 ----------
variable ax equal 4.604277901
variable bx equal -2.30213895     # = a2.x  -> xy tilt
variable by equal 3.987421628     # = a2.y
variable cz equal 7.276386111     # = a3.z

region box prism 0 ${ax}  0 ${by}  0 ${cz}  ${bx}  0.0 0.0  units box
region box prism 0 4.604277901  0 ${by}  0 ${cz}  ${bx}  0.0 0.0  units box
region box prism 0 4.604277901  0 3.987421628  0 ${cz}  ${bx}  0.0 0.0  units box
region box prism 0 4.604277901  0 3.987421628  0 7.276386111  ${bx}  0.0 0.0  units box
region box prism 0 4.604277901  0 3.987421628  0 7.276386111  -2.30213895  0.0 0.0  units box
create_box 2 box
Created triclinic box = (0 0 0) to (4.6042779 3.9874216 7.2763861) with tilt (-2.3021389 0 0)
  4 by 3 by 4 MPI processor grid
create_atoms 1 box  basis 4 2  basis 5 2   # Bi on basis indices 4 & 5 (type 2), Mg others (type 1)
Created 5 atoms
  using lattice units in triclinic box = (0 0 0) to (4.6042779 3.9874216 7.2763861) with tilt (-2.3021389 0 0)
  create_atoms CPU = 0.002 seconds

# realistic masses (not required for minimization, but good practice)
mass 1 24.305     # Mg
mass 2 208.98040  # Bi

# --- make an n×m×p supercell (example: 2×3×1) ---
replicate 15 15 12
Replicating atoms ...
  triclinic box = (0 0 0) to (69.064169 59.811324 87.316633) with tilt (-34.532084 0 0)
  4 by 3 by 4 MPI processor grid
  13500 atoms
  replicate CPU = 0.002 seconds


velocity	all create ${temp} 87287
velocity	all create 900 87287



# Compute initial state

variable thermostat equal 1
include potential.mod
# NOTE: This script can be modified for different pair styles
# See in.elastic for more info.

# we must undefine any fix ave/* fix before using reset_timestep
if "$(is_defined(fix,avp))" then "unfix avp"
reset_timestep 0

# MTP potential
pair_style  nep
pair_coeff  * * nep_y2026_m09_d04_h13_m17_s19_generation300000.txt Mg Bi


# Setup neighbor style
neighbor 1.0 nsq
neigh_modify once no every 1 delay 0 check yes

# Setup output

fix avp all ave/time  ${nevery} ${nrepeat} ${nfreq} c_thermo_press mode vector
fix avp all ave/time  10 ${nrepeat} ${nfreq} c_thermo_press mode vector
fix avp all ave/time  10 10 ${nfreq} c_thermo_press mode vector
fix avp all ave/time  10 10 100 c_thermo_press mode vector
thermo		${nthermo}
thermo		100
thermo_style custom step temp pe press f_avp[1] f_avp[2] f_avp[3] f_avp[4] f_avp[5] f_avp[6]
thermo_modify norm no

# Setup MD

timestep ${timestep}
timestep 0.001
fix 4 all nve
if "${thermostat} == 1" then    "fix 5 all langevin ${temp} ${temp} ${tdamp} ${seed}"
fix 5 all langevin ${temp} ${temp} ${tdamp} ${seed}
fix 5 all langevin 900 ${temp} ${tdamp} ${seed}
fix 5 all langevin 900 900 ${tdamp} ${seed}
fix 5 all langevin 900 900 0.01 ${seed}
fix 5 all langevin 900 900 0.01 123457


run ${nequil}
run 1000
Neighbor list info ...
  update every 1 steps, delay 0 steps, check yes
  max neighbors/atom: 2000, page size: 100000
  master list distance cutoff = 7
  ghost atom cutoff = 7
  1 neighbor lists, perpetual/occasional/extra = 1 0 0
  (1) pair nep, perpetual
      attributes: full, newton on
      pair build: full/nsq
      stencil: none
      bin: none
Per MPI rank memory allocation (min/avg/max) = 3.068 | 3.068 | 3.068 Mbytes
   Step          Temp          PotEng         Press         f_avp[1]       f_avp[2]       f_avp[3]       f_avp[4]       f_avp[5]       f_avp[6]   
         0   900           -42181.628      4444.8681      0              0              0              0              0              0            
       100   883.92793     -41266.914      15921.985      12248.698      12487.8        11641.864     -100.44044      25.952546      75.134536    
       200   901.62441     -41091.071      17883.989      17987.796      17797.077      16010.768     -96.424483      132.48666     -75.370201    
       300   903.95167     -41001.646      18421.589      18977.157      18695.298      16963.195     -130.61069      151.50836     -90.945908    
       400   897.24556     -40933.692      18741.202      19373.788      19177.884      17435.577     -225.49747      180.01919     -65.146694    
       500   885.64554     -40890.292      18802.822      19585.875      19486.503      17321.124     -27.693772      140.0807      -56.848536    
       600   894.33595     -40852.945      19062.956      19715.202      19625.518      17604.448     -123.44602      173.59165     -154.30943    
       700   897.43782     -40814.115      19248.42       19680.984      20175.224      17780.554     -3.1072831      57.542988      99.102314    
       800   890.77961     -40779.28       19443.932      19779.829      20041.87       18113.963     -265.65584      185.52544     -23.402835    
       900   889.88187     -40763.812      19431.091      20338.659      19847.705      18251.712     -116.10559      199.48617     -283.9755     
      1000   903.72869     -40742.516      19646.165      20432.258      20441.412      17988.49      -6.4431527      148.2515      -75.912003    
Loop time of 15.2019 on 48 procs for 1000 steps with 13500 atoms

Performance: 5.683 ns/day, 4.223 hours/ns, 65.781 timesteps/s
99.5% CPU use with 48 MPI tasks x no OpenMP threads

MPI task timing breakdown:
Section |  min time  |  avg time  |  max time  |%varavg| %total
---------------------------------------------------------------
Pair    | 12.77      | 13.644     | 14.437     |  14.7 | 89.75
Neigh   | 0.058244   | 0.063058   | 0.067505   |   1.5 |  0.41
Comm    | 0.40209    | 1.2567     | 2.1868     |  48.5 |  8.27
Output  | 0.00053861 | 0.00060368 | 0.0014928  |   0.0 |  0.00
Modify  | 0.025758   | 0.046379   | 0.071642   |   6.6 |  0.31
Other   |            | 0.1913     |            |       |  1.26

Nlocal:         281.25 ave         297 max         262 min
Histogram: 2 3 10 7 1 1 3 3 14 4
Nghost:        1267.88 ave        1300 max        1231 min
Histogram: 2 6 14 1 1 0 0 6 12 6
Neighs:              0 ave           0 max           0 min
Histogram: 48 0 0 0 0 0 0 0 0 0
FullNghs:      14429.9 ave       15266 max       13435 min
Histogram: 3 3 10 6 2 1 2 7 7 7

Total # of neighbors = 692636
Ave neighs/atom = 51.30637
Neighbor list builds = 32
Dangerous builds = 0

if "${adiabatic} == 1" then "variable thermostat equal 0" else "variable thermostat equal 1"
variable thermostat equal 1

print ${thermostat}
print 1
1

include potential.mod
# NOTE: This script can be modified for different pair styles
# See in.elastic for more info.

# we must undefine any fix ave/* fix before using reset_timestep
if "$(is_defined(fix,avp))" then "unfix avp"
unfix avp
reset_timestep 0

# MTP potential
pair_style  nep
pair_coeff  * * nep_y2026_m09_d04_h13_m17_s19_generation300000.txt Mg Bi


# Setup neighbor style
neighbor 1.0 nsq
neigh_modify once no every 1 delay 0 check yes

# Setup output

fix avp all ave/time  ${nevery} ${nrepeat} ${nfreq} c_thermo_press mode vector
fix avp all ave/time  10 ${nrepeat} ${nfreq} c_thermo_press mode vector
fix avp all ave/time  10 10 ${nfreq} c_thermo_press mode vector
fix avp all ave/time  10 10 100 c_thermo_press mode vector
thermo		${nthermo}
thermo		100
thermo_style custom step temp pe press f_avp[1] f_avp[2] f_avp[3] f_avp[4] f_avp[5] f_avp[6]
WARNING: New thermo_style command, previous thermo_modify settings will be lost (../output.cpp:896)
thermo_modify norm no

# Setup MD

timestep ${timestep}
timestep 0.001
fix 4 all nve
if "${thermostat} == 1" then    "fix 5 all langevin ${temp} ${temp} ${tdamp} ${seed}"
fix 5 all langevin ${temp} ${temp} ${tdamp} ${seed}
fix 5 all langevin 900 ${temp} ${tdamp} ${seed}
fix 5 all langevin 900 900 ${tdamp} ${seed}
fix 5 all langevin 900 900 0.01 ${seed}
fix 5 all langevin 900 900 0.01 123457


run ${nrun}
run 300
Per MPI rank memory allocation (min/avg/max) = 3.068 | 3.068 | 3.068 Mbytes
   Step          Temp          PotEng         Press         f_avp[1]       f_avp[2]       f_avp[3]       f_avp[4]       f_avp[5]       f_avp[6]   
         0   903.72869     -40742.516      19646.165      0              0              0              0              0              0            
       100   892.606       -40720.082      19732.759      20312.443      20488.597      18087.04      -165.0026       64.977604     -85.003174    
       200   895.43657     -40718.639      19670.584      20515.115      19940.848      18562.141     -10.409694     -62.617028     -297.32386    
       300   905.524       -40695.786      19776.238      20688.979      20141.509      18435.551     -71.106712      92.122072     -116.51476    
Loop time of 4.57053 on 48 procs for 300 steps with 13500 atoms

Performance: 5.671 ns/day, 4.232 hours/ns, 65.638 timesteps/s
99.5% CPU use with 48 MPI tasks x no OpenMP threads

MPI task timing breakdown:
Section |  min time  |  avg time  |  max time  |%varavg| %total
---------------------------------------------------------------
Pair    | 3.8791     | 4.105      | 4.3419     |   7.6 | 89.81
Neigh   | 0.01626    | 0.017754   | 0.019246   |   0.7 |  0.39
Comm    | 0.11045    | 0.36034    | 0.57222    |  22.7 |  7.88
Output  | 0.00014444 | 0.00015814 | 0.00018691 |   0.0 |  0.00
Modify  | 0.0056767  | 0.017912   | 0.033369   |   9.2 |  0.39
Other   |            | 0.06941    |            |       |  1.52

Nlocal:         281.25 ave         298 max         262 min
Histogram: 2 2 10 8 2 0 5 6 9 4
Nghost:        1267.42 ave        1299 max        1228 min
Histogram: 1 2 15 5 1 0 0 5 14 5
Neighs:              0 ave           0 max           0 min
Histogram: 48 0 0 0 0 0 0 0 0 0
FullNghs:      14453.8 ave       15368 max       13506 min
Histogram: 3 5 11 3 2 0 5 8 7 4

Total # of neighbors = 693780
Ave neighs/atom = 51.391111
Neighbor list builds = 9
Dangerous builds = 0

variable pxx0 equal f_avp[1]
variable pyy0 equal f_avp[2]
variable pzz0 equal f_avp[3]
variable pxy0 equal f_avp[4]
variable pxz0 equal f_avp[5]
variable pyz0 equal f_avp[6]

variable tmp equal lx
variable lx0 equal ${tmp}
variable lx0 equal 69.064168515
variable tmp equal ly
variable ly0 equal ${tmp}
variable ly0 equal 59.81132442
variable tmp equal lz
variable lz0 equal ${tmp}
variable lz0 equal 87.316633332

# These formulas define the derivatives w.r.t. strain components
# Constants uses $, variables use v_
variable d1 equal -(v_pxx1-${pxx0})/(v_delta/v_len0)*${cfac}
variable d1 equal -(v_pxx1-20688.9793086464)/(v_delta/v_len0)*${cfac}
variable d1 equal -(v_pxx1-20688.9793086464)/(v_delta/v_len0)*0.0001
variable d2 equal -(v_pyy1-${pyy0})/(v_delta/v_len0)*${cfac}
variable d2 equal -(v_pyy1-20141.5085828045)/(v_delta/v_len0)*${cfac}
variable d2 equal -(v_pyy1-20141.5085828045)/(v_delta/v_len0)*0.0001
variable d3 equal -(v_pzz1-${pzz0})/(v_delta/v_len0)*${cfac}
variable d3 equal -(v_pzz1-18435.5509758719)/(v_delta/v_len0)*${cfac}
variable d3 equal -(v_pzz1-18435.5509758719)/(v_delta/v_len0)*0.0001
variable d4 equal -(v_pyz1-${pyz0})/(v_delta/v_len0)*${cfac}
variable d4 equal -(v_pyz1--116.514761230643)/(v_delta/v_len0)*${cfac}
variable d4 equal -(v_pyz1--116.514761230643)/(v_delta/v_len0)*0.0001
variable d5 equal -(v_pxz1-${pxz0})/(v_delta/v_len0)*${cfac}
variable d5 equal -(v_pxz1-92.1220722279759)/(v_delta/v_len0)*${cfac}
variable d5 equal -(v_pxz1-92.1220722279759)/(v_delta/v_len0)*0.0001
variable d6 equal -(v_pxy1-${pxy0})/(v_delta/v_len0)*${cfac}
variable d6 equal -(v_pxy1--71.1067115031172)/(v_delta/v_len0)*${cfac}
variable d6 equal -(v_pxy1--71.1067115031172)/(v_delta/v_len0)*0.0001

# Write restart
write_restart restart.equil
System init for write_restart ...

# uxx Perturbation

variable dir equal 1
include displace.mod
# NOTE: This script should not need to be
# modified. See in.elastic for more info.
#
# Find which reference length to use

if "${dir} == 1" then    "variable len0 equal ${lx0}"
variable len0 equal ${lx0}
variable len0 equal 69.064168515
if "${dir} == 2" then    "variable len0 equal ${ly0}"
if "${dir} == 3" then    "variable len0 equal ${lz0}"
if "${dir} == 4" then    "variable len0 equal ${lz0}"
if "${dir} == 5" then    "variable len0 equal ${lz0}"
if "${dir} == 6" then    "variable len0 equal ${ly0}"

# Reset box and simulation parameters

clear
box tilt large
read_restart restart.equil
Reading restart file ...
  restart file = 24 Mar 2022, LAMMPS = 24 Mar 2022
  restoring atom style atomic from restart
  triclinic box = (0 0 0) to (69.064169 59.811324 87.316633) with tilt (-34.532084 0 0)
  4 by 3 by 4 MPI processor grid
  pair style nep stores no restart info
  13500 atoms
  read_restart CPU = 0.154 seconds
include potential.mod
# NOTE: This script can be modified for different pair styles
# See in.elastic for more info.

# we must undefine any fix ave/* fix before using reset_timestep
if "$(is_defined(fix,avp))" then "unfix avp"
reset_timestep 0

# MTP potential
pair_style  nep
pair_coeff  * * nep_y2026_m09_d04_h13_m17_s19_generation300000.txt Mg Bi


# Setup neighbor style
neighbor 1.0 nsq
neigh_modify once no every 1 delay 0 check yes

# Setup output

fix avp all ave/time  ${nevery} ${nrepeat} ${nfreq} c_thermo_press mode vector
fix avp all ave/time  10 ${nrepeat} ${nfreq} c_thermo_press mode vector
fix avp all ave/time  10 10 ${nfreq} c_thermo_press mode vector
fix avp all ave/time  10 10 100 c_thermo_press mode vector
thermo		${nthermo}
thermo		100
thermo_style custom step temp pe press f_avp[1] f_avp[2] f_avp[3] f_avp[4] f_avp[5] f_avp[6]
thermo_modify norm no

# Setup MD

timestep ${timestep}
timestep 0.001
fix 4 all nve
if "${thermostat} == 1" then    "fix 5 all langevin ${temp} ${temp} ${tdamp} ${seed}"
fix 5 all langevin ${temp} ${temp} ${tdamp} ${seed}
fix 5 all langevin 900 ${temp} ${tdamp} ${seed}
fix 5 all langevin 900 900 ${tdamp} ${seed}
fix 5 all langevin 900 900 0.01 ${seed}
fix 5 all langevin 900 900 0.01 123457



# Negative deformation

variable delta equal -${up}*${len0}
variable delta equal -0.02*${len0}
variable delta equal -0.02*69.064168515
variable deltaxy equal -${up}*xy
variable deltaxy equal -0.02*xy
variable deltaxz equal -${up}*xz
variable deltaxz equal -0.02*xz
variable deltayz equal -${up}*yz
variable deltayz equal -0.02*yz
if "${dir} == 1" then    "change_box all x delta 0 ${delta} xy delta ${deltaxy} xz delta ${deltaxz} remap units box"
change_box all x delta 0 ${delta} xy delta ${deltaxy} xz delta ${deltaxz} remap units box
change_box all x delta 0 -1.3812833703 xy delta ${deltaxy} xz delta ${deltaxz} remap units box
change_box all x delta 0 -1.3812833703 xy delta 0.690641685 xz delta ${deltaxz} remap units box
change_box all x delta 0 -1.3812833703 xy delta 0.690641685 xz delta -0 remap units box
Changing box ...
WARNING: Triclinic box skew is large (../domain.cpp:228)
  triclinic box = (0 0 0) to (67.682885 59.811324 87.316633) with tilt (-34.532084 0 0)
  triclinic box = (0 0 0) to (67.682885 59.811324 87.316633) with tilt (-33.841443 0 0)
  triclinic box = (0 0 0) to (67.682885 59.811324 87.316633) with tilt (-33.841443 0 0)
if "${dir} == 2" then    "change_box all y delta 0 ${delta} yz delta ${deltayz} remap units box"
if "${dir} == 3" then    "change_box all z delta 0 ${delta} remap units box"
if "${dir} == 4" then    "change_box all yz delta ${delta} remap units box"
if "${dir} == 5" then    "change_box all xz delta ${delta} remap units box"
if "${dir} == 6" then    "change_box all xy delta ${delta} remap units box"

# Run MD

run ${nequil}
run 1000
Neighbor list info ...
  update every 1 steps, delay 0 steps, check yes
  max neighbors/atom: 2000, page size: 100000
  master list distance cutoff = 7
  ghost atom cutoff = 7
  1 neighbor lists, perpetual/occasional/extra = 1 0 0
  (1) pair nep, perpetual
      attributes: full, newton on
      pair build: full/nsq
      stencil: none
      bin: none
Per MPI rank memory allocation (min/avg/max) = 3.065 | 3.068 | 3.08 Mbytes
   Step          Temp          PotEng         Press         f_avp[1]       f_avp[2]       f_avp[3]       f_avp[4]       f_avp[5]       f_avp[6]   
         0   905.524       -40586.066      30124.315      0              0              0              0              0              0            
       100   889.11462     -40638.355      28928.565      35826.381      27774.806      24483.772     -52.526272      85.596633     -744.34397    
       200   891.35912     -40627.484      28869.57       34260.707      28088.512      24274.939     -88.433777      200.8318      -314.54784    
       300   904.29992     -40635.41       28784.66       33970.889      28179.214      24336.353      240.73228     -11.789495     -219.68651    
       400   893.78991     -40631.775      28750.43       33417.171      28389.444      24594.949      300.768       -152.80261     -77.071448    
       500   887.71928     -40612.17       28855.529      33002.738      28759.934      24756.638     -246.56886     -0.38767039     141.13779    
       600   899.09596     -40618.896      28864.53       32988.569      28823.879      24705.218     -293.00898      69.842273      254.15094    
       700   895.26335     -40625.328      28642.538      32595.222      28946.962      24868.053     -216.00063     -52.786839      465.2103     
       800   897.19569     -40616.801      28637.462      32679.985      28478.066      24864.146      192.68443     -158.49301      172.09016    
       900   901.88307     -40608.711      28755.903      32877.774      28533.892      24952.485      93.613802     -140.07104      154.55199    
      1000   897.08784     -40604.846      28671.19       33012.461      28474.549      24734.138     -112.81036     -240.43082      0.44048255   
Loop time of 15.4548 on 48 procs for 1000 steps with 13500 atoms

Performance: 5.590 ns/day, 4.293 hours/ns, 64.705 timesteps/s
99.6% CPU use with 48 MPI tasks x no OpenMP threads

MPI task timing breakdown:
Section |  min time  |  avg time  |  max time  |%varavg| %total
---------------------------------------------------------------
Pair    | 13.106     | 13.909     | 14.766     |  14.4 | 90.00
Neigh   | 0.059478   | 0.063824   | 0.068096   |   1.2 |  0.41
Comm    | 0.35582    | 1.2071     | 2.0363     |  46.4 |  7.81
Output  | 0.00052519 | 0.0005533  | 0.00069292 |   0.0 |  0.00
Modify  | 0.018766   | 0.035545   | 0.054353   |   6.0 |  0.23
Other   |            | 0.2388     |            |       |  1.55

Nlocal:         281.25 ave         300 max         263 min
Histogram: 1 6 7 6 4 3 10 6 3 2
Nghost:        1274.29 ave        1302 max        1242 min
Histogram: 3 7 2 7 4 2 3 5 11 4
Neighs:              0 ave           0 max           0 min
Histogram: 48 0 0 0 0 0 0 0 0 0
FullNghs:      14849.3 ave       15959 max       13872 min
Histogram: 2 6 7 6 3 5 12 3 3 1

Total # of neighbors = 712766
Ave neighs/atom = 52.797481
Neighbor list builds = 32
Dangerous builds = 0
include potential.mod
# NOTE: This script can be modified for different pair styles
# See in.elastic for more info.

# we must undefine any fix ave/* fix before using reset_timestep
if "$(is_defined(fix,avp))" then "unfix avp"
unfix avp
reset_timestep 0

# MTP potential
pair_style  nep
pair_coeff  * * nep_y2026_m09_d04_h13_m17_s19_generation300000.txt Mg Bi


# Setup neighbor style
neighbor 1.0 nsq
neigh_modify once no every 1 delay 0 check yes

# Setup output

fix avp all ave/time  ${nevery} ${nrepeat} ${nfreq} c_thermo_press mode vector
fix avp all ave/time  10 ${nrepeat} ${nfreq} c_thermo_press mode vector
fix avp all ave/time  10 10 ${nfreq} c_thermo_press mode vector
fix avp all ave/time  10 10 100 c_thermo_press mode vector
thermo		${nthermo}
thermo		100
thermo_style custom step temp pe press f_avp[1] f_avp[2] f_avp[3] f_avp[4] f_avp[5] f_avp[6]
WARNING: New thermo_style command, previous thermo_modify settings will be lost (../output.cpp:896)
thermo_modify norm no

# Setup MD

timestep ${timestep}
timestep 0.001
fix 4 all nve
if "${thermostat} == 1" then    "fix 5 all langevin ${temp} ${temp} ${tdamp} ${seed}"
fix 5 all langevin ${temp} ${temp} ${tdamp} ${seed}
fix 5 all langevin 900 ${temp} ${tdamp} ${seed}
fix 5 all langevin 900 900 ${tdamp} ${seed}
fix 5 all langevin 900 900 0.01 ${seed}
fix 5 all langevin 900 900 0.01 123457


run ${nrun}
run 300
Per MPI rank memory allocation (min/avg/max) = 3.066 | 3.071 | 3.081 Mbytes
   Step          Temp          PotEng         Press         f_avp[1]       f_avp[2]       f_avp[3]       f_avp[4]       f_avp[5]       f_avp[6]   
         0   897.08784     -40604.846      28671.19       0              0              0              0              0              0            
       100   885.05627     -40595.509      28552.158      32647.04       28456.359      24631.836     -144.42326     -329.35137      33.458567    
       200   890.1614      -40590.902      28636.375      32658.241      29052.901      24582.177     -319.96976     -219.0538       288.88492    
       300   897.03776     -40582.13       28776.749      32827.524      28625.71       24775.242     -320.66037      30.91288       187.46485    
Loop time of 4.74679 on 48 procs for 300 steps with 13500 atoms

Performance: 5.461 ns/day, 4.395 hours/ns, 63.201 timesteps/s
99.5% CPU use with 48 MPI tasks x no OpenMP threads

MPI task timing breakdown:
Section |  min time  |  avg time  |  max time  |%varavg| %total
---------------------------------------------------------------
Pair    | 3.9237     | 4.1834     | 4.4829     |   7.4 | 88.13
Neigh   | 0.016827   | 0.018054   | 0.019449   |   0.6 |  0.38
Comm    | 0.1499     | 0.4457     | 0.73208    |  21.8 |  9.39
Output  | 0.00013008 | 0.0001397  | 0.00018296 |   0.0 |  0.00
Modify  | 0.0062449  | 0.01192    | 0.029848   |   6.0 |  0.25
Other   |            | 0.0876     |            |       |  1.85

Nlocal:         281.25 ave         303 max         266 min
Histogram: 6 11 5 1 3 9 3 7 2 1
Nghost:        1272.15 ave        1299 max        1243 min
Histogram: 2 9 3 6 4 2 3 7 8 4
Neighs:              0 ave           0 max           0 min
Histogram: 48 0 0 0 0 0 0 0 0 0
FullNghs:      14854.2 ave       16259 max       13975 min
Histogram: 6 11 4 4 6 5 9 2 0 1

Total # of neighbors = 713000
Ave neighs/atom = 52.814815
Neighbor list builds = 9
Dangerous builds = 0

# Obtain new stress tensor

variable pxx1 equal f_avp[1]
variable pyy1 equal f_avp[2]
variable pzz1 equal f_avp[3]
variable pxy1 equal f_avp[4]
variable pxz1 equal f_avp[5]
variable pyz1 equal f_avp[6]

# Compute elastic constant from pressure tensor

variable C1neg equal ${d1}
variable C1neg equal 60.692721265304
variable C2neg equal ${d2}
variable C2neg equal 42.4210046759605
variable C3neg equal ${d3}
variable C3neg equal 31.698457496683
variable C4neg equal ${d4}
variable C4neg equal 1.51989806630978
variable C5neg equal ${d5}
variable C5neg equal -0.306045962166746
variable C6neg equal ${d6}
variable C6neg equal -1.24776827787678

# Reset box and simulation parameters

clear
box tilt large
read_restart restart.equil
Reading restart file ...
  restart file = 24 Mar 2022, LAMMPS = 24 Mar 2022
  restoring atom style atomic from restart
  triclinic box = (0 0 0) to (69.064169 59.811324 87.316633) with tilt (-34.532084 0 0)
  4 by 3 by 4 MPI processor grid
  pair style nep stores no restart info
  13500 atoms
  read_restart CPU = 0.012 seconds
include potential.mod
# NOTE: This script can be modified for different pair styles
# See in.elastic for more info.

# we must undefine any fix ave/* fix before using reset_timestep
if "$(is_defined(fix,avp))" then "unfix avp"
reset_timestep 0

# MTP potential
pair_style  nep
pair_coeff  * * nep_y2026_m09_d04_h13_m17_s19_generation300000.txt Mg Bi


# Setup neighbor style
neighbor 1.0 nsq
neigh_modify once no every 1 delay 0 check yes

# Setup output

fix avp all ave/time  ${nevery} ${nrepeat} ${nfreq} c_thermo_press mode vector
fix avp all ave/time  10 ${nrepeat} ${nfreq} c_thermo_press mode vector
fix avp all ave/time  10 10 ${nfreq} c_thermo_press mode vector
fix avp all ave/time  10 10 100 c_thermo_press mode vector
thermo		${nthermo}
thermo		100
thermo_style custom step temp pe press f_avp[1] f_avp[2] f_avp[3] f_avp[4] f_avp[5] f_avp[6]
thermo_modify norm no

# Setup MD

timestep ${timestep}
timestep 0.001
fix 4 all nve
if "${thermostat} == 1" then    "fix 5 all langevin ${temp} ${temp} ${tdamp} ${seed}"
fix 5 all langevin ${temp} ${temp} ${tdamp} ${seed}
fix 5 all langevin 900 ${temp} ${tdamp} ${seed}
fix 5 all langevin 900 900 ${tdamp} ${seed}
fix 5 all langevin 900 900 0.01 ${seed}
fix 5 all langevin 900 900 0.01 123457



# Positive deformation

variable delta equal ${up}*${len0}
variable delta equal 0.02*${len0}
variable delta equal 0.02*69.064168515
variable deltaxy equal ${up}*xy
variable deltaxy equal 0.02*xy
variable deltaxz equal ${up}*xz
variable deltaxz equal 0.02*xz
variable deltayz equal ${up}*yz
variable deltayz equal 0.02*yz
if "${dir} == 1" then    "change_box all x delta 0 ${delta} xy delta ${deltaxy} xz delta ${deltaxz} remap units box"
change_box all x delta 0 ${delta} xy delta ${deltaxy} xz delta ${deltaxz} remap units box
change_box all x delta 0 1.3812833703 xy delta ${deltaxy} xz delta ${deltaxz} remap units box
change_box all x delta 0 1.3812833703 xy delta -0.690641685 xz delta ${deltaxz} remap units box
change_box all x delta 0 1.3812833703 xy delta -0.690641685 xz delta 0 remap units box
Changing box ...
  triclinic box = (0 0 0) to (70.445452 59.811324 87.316633) with tilt (-34.532084 0 0)
  triclinic box = (0 0 0) to (70.445452 59.811324 87.316633) with tilt (-35.222726 0 0)
  triclinic box = (0 0 0) to (70.445452 59.811324 87.316633) with tilt (-35.222726 0 0)
if "${dir} == 2" then    "change_box all y delta 0 ${delta} yz delta ${deltayz} remap units box"
if "${dir} == 3" then    "change_box all z delta 0 ${delta} remap units box"
if "${dir} == 4" then    "change_box all yz delta ${delta} remap units box"
if "${dir} == 5" then    "change_box all xz delta ${delta} remap units box"
if "${dir} == 6" then    "change_box all xy delta ${delta} remap units box"

# Run MD

run ${nequil}
run 1000
Neighbor list info ...
  update every 1 steps, delay 0 steps, check yes
  max neighbors/atom: 2000, page size: 100000
  master list distance cutoff = 7
  ghost atom cutoff = 7
  1 neighbor lists, perpetual/occasional/extra = 1 0 0
  (1) pair nep, perpetual
      attributes: full, newton on
      pair build: full/nsq
      stencil: none
      bin: none
Per MPI rank memory allocation (min/avg/max) = 3.065 | 3.068 | 3.078 Mbytes
   Step          Temp          PotEng         Press         f_avp[1]       f_avp[2]       f_avp[3]       f_avp[4]       f_avp[5]       f_avp[6]   
         0   905.524       -40731.581      10717.778      0              0              0              0              0              0            
       100   898.69132     -40693.558      11244.824      7138.0492      13469.76       12370.324     -138.30061      88.170804      86.01214     
       200   897.52256     -40664.065      11598.616      8637.6318      13222.526      12528.175      252.84687      15.739775     -406.87466    
       300   896.03482     -40648.359      11722.172      9183.581       13030.9        12735.735      370.897       -33.249944     -392.15029    
       400   899.72239     -40626.07       11973.741      9257.5623      13053.857      13166.838      275.40486      12.734041     -368.93345    
       500   893.0102      -40642.784      11809.999      9478.6105      13091.28       13043.592      16.959013      226.70107     -408.12108    
       600   890.90461     -40634.614      11812.474      9596.5194      12931.816      13133.54      -209.24786      308.37464     -584.97906    
       700   892.21849     -40628.821      11882.105      9495.1391      13127.187      13038.867     -120.67964      164.59902     -435.65768    
       800   889.03441     -40612.558      11938.003      9319.5134      13700.941      12984.897      120.64087     -28.887133     -134.08211    
       900   896.67671     -40603.896      12046.832      9476.6524      13738.638      12716.035     -150.27201      180.47848     -214.84885    
      1000   899.61671     -40610.745      11945.868      9447.795       13590.861      12950.189     -261.02146      309.73155     -238.34226    
Loop time of 14.9103 on 48 procs for 1000 steps with 13500 atoms

Performance: 5.795 ns/day, 4.142 hours/ns, 67.068 timesteps/s
99.6% CPU use with 48 MPI tasks x no OpenMP threads

MPI task timing breakdown:
Section |  min time  |  avg time  |  max time  |%varavg| %total
---------------------------------------------------------------
Pair    | 12.589     | 13.456     | 14.269     |  14.0 | 90.25
Neigh   | 0.060485   | 0.065027   | 0.072552   |   1.3 |  0.44
Comm    | 0.35784    | 1.1779     | 2.0547     |  45.8 |  7.90
Output  | 0.00044667 | 0.0004927  | 0.00059283 |   0.0 |  0.00
Modify  | 0.018303   | 0.033878   | 0.056985   |   6.1 |  0.23
Other   |            | 0.1766     |            |       |  1.18

Nlocal:         281.25 ave         300 max         264 min
Histogram: 4 7 8 4 1 1 11 6 5 1
Nghost:        1255.12 ave        1289 max        1222 min
Histogram: 2 9 10 3 0 0 3 15 4 2
Neighs:              0 ave           0 max           0 min
Histogram: 48 0 0 0 0 0 0 0 0 0
FullNghs:      14201.7 ave       15199 max       13272 min
Histogram: 4 4 10 5 2 0 10 7 5 1

Total # of neighbors = 681682
Ave neighs/atom = 50.494963
Neighbor list builds = 33
Dangerous builds = 0
include potential.mod
# NOTE: This script can be modified for different pair styles
# See in.elastic for more info.

# we must undefine any fix ave/* fix before using reset_timestep
if "$(is_defined(fix,avp))" then "unfix avp"
unfix avp
reset_timestep 0

# MTP potential
pair_style  nep
pair_coeff  * * nep_y2026_m09_d04_h13_m17_s19_generation300000.txt Mg Bi


# Setup neighbor style
neighbor 1.0 nsq
neigh_modify once no every 1 delay 0 check yes

# Setup output

fix avp all ave/time  ${nevery} ${nrepeat} ${nfreq} c_thermo_press mode vector
fix avp all ave/time  10 ${nrepeat} ${nfreq} c_thermo_press mode vector
fix avp all ave/time  10 10 ${nfreq} c_thermo_press mode vector
fix avp all ave/time  10 10 100 c_thermo_press mode vector
thermo		${nthermo}
thermo		100
thermo_style custom step temp pe press f_avp[1] f_avp[2] f_avp[3] f_avp[4] f_avp[5] f_avp[6]
WARNING: New thermo_style command, previous thermo_modify settings will be lost (../output.cpp:896)
thermo_modify norm no

# Setup MD

timestep ${timestep}
timestep 0.001
fix 4 all nve
if "${thermostat} == 1" then    "fix 5 all langevin ${temp} ${temp} ${tdamp} ${seed}"
fix 5 all langevin ${temp} ${temp} ${tdamp} ${seed}
fix 5 all langevin 900 ${temp} ${tdamp} ${seed}
fix 5 all langevin 900 900 ${tdamp} ${seed}
fix 5 all langevin 900 900 0.01 ${seed}
fix 5 all langevin 900 900 0.01 123457


run ${nrun}
run 300
Per MPI rank memory allocation (min/avg/max) = 3.065 | 3.071 | 3.08 Mbytes
   Step          Temp          PotEng         Press         f_avp[1]       f_avp[2]       f_avp[3]       f_avp[4]       f_avp[5]       f_avp[6]   
         0   899.61671     -40610.745      11945.868      0              0              0              0              0              0            
       100   894.01898     -40616.81       11822.355      9272.2116      13446.482      13208.07      -273.14646      266.04478     -246.82942    
       200   903.09944     -40598.063      12114.108      9408.6185      13317.498      13128.07      -146.33949      194.99209     -406.05779    
       300   901.03366     -40582.894      12284.074      9523.8908      13903.284      13324.592      69.866494      88.007459     -265.03442    
Loop time of 4.54655 on 48 procs for 300 steps with 13500 atoms

Performance: 5.701 ns/day, 4.210 hours/ns, 65.984 timesteps/s
99.6% CPU use with 48 MPI tasks x no OpenMP threads

MPI task timing breakdown:
Section |  min time  |  avg time  |  max time  |%varavg| %total
---------------------------------------------------------------
Pair    | 3.7319     | 4.0403     | 4.3533     |   8.0 | 88.87
Neigh   | 0.016348   | 0.017737   | 0.019181   |   0.7 |  0.39
Comm    | 0.15194    | 0.41367    | 0.7552     |  22.8 |  9.10
Output  | 0.00013191 | 0.00015001 | 0.00020118 |   0.0 |  0.00
Modify  | 0.0053075  | 0.0089394  | 0.016458   |   3.8 |  0.20
Other   |            | 0.06572    |            |       |  1.45

Nlocal:         281.25 ave         298 max         268 min
Histogram: 8 9 3 3 1 2 8 7 3 4
Nghost:           1257 ave        1289 max        1228 min
Histogram: 10 7 4 3 0 1 2 6 10 5
Neighs:              0 ave           0 max           0 min
Histogram: 48 0 0 0 0 0 0 0 0 0
FullNghs:      14209.9 ave       15123 max       13458 min
Histogram: 8 7 6 2 1 6 4 7 3 4

Total # of neighbors = 682076
Ave neighs/atom = 50.524148
Neighbor list builds = 9
Dangerous builds = 0

# Obtain new stress tensor

variable pxx1 equal f_avp[1]
variable pyy1 equal f_avp[2]
variable pzz1 equal f_avp[3]
variable pxy1 equal f_avp[4]
variable pxz1 equal f_avp[5]
variable pyz1 equal f_avp[6]

# Compute elastic constant from pressure tensor

variable C1pos equal ${d1}
variable C1pos equal 55.8254422957356
variable C2pos equal ${d2}
variable C2pos equal 31.1911235297755
variable C3pos equal ${d3}
variable C3pos equal 25.554795194349
variable C4pos equal ${d4}
variable C4pos equal 0.742598312394155
variable C5pos equal ${d5}
variable C5pos equal 0.0205730655790281
variable C6pos equal ${d6}
variable C6pos equal -0.704866029657291

# Combine positive and negative

variable C1${dir} equal 0.5*(${C1neg}+${C1pos})
variable C11 equal 0.5*(${C1neg}+${C1pos})
variable C11 equal 0.5*(60.692721265304+${C1pos})
variable C11 equal 0.5*(60.692721265304+55.8254422957356)
variable C2${dir} equal 0.5*(${C2neg}+${C2pos})
variable C21 equal 0.5*(${C2neg}+${C2pos})
variable C21 equal 0.5*(42.4210046759605+${C2pos})
variable C21 equal 0.5*(42.4210046759605+31.1911235297755)
variable C3${dir} equal 0.5*(${C3neg}+${C3pos})
variable C31 equal 0.5*(${C3neg}+${C3pos})
variable C31 equal 0.5*(31.698457496683+${C3pos})
variable C31 equal 0.5*(31.698457496683+25.554795194349)
variable C4${dir} equal 0.5*(${C4neg}+${C4pos})
variable C41 equal 0.5*(${C4neg}+${C4pos})
variable C41 equal 0.5*(1.51989806630978+${C4pos})
variable C41 equal 0.5*(1.51989806630978+0.742598312394155)
variable C5${dir} equal 0.5*(${C5neg}+${C5pos})
variable C51 equal 0.5*(${C5neg}+${C5pos})
variable C51 equal 0.5*(-0.306045962166746+${C5pos})
variable C51 equal 0.5*(-0.306045962166746+0.0205730655790281)
variable C6${dir} equal 0.5*(${C6neg}+${C6pos})
variable C61 equal 0.5*(${C6neg}+${C6pos})
variable C61 equal 0.5*(-1.24776827787678+${C6pos})
variable C61 equal 0.5*(-1.24776827787678+-0.704866029657291)

# Delete dir to make sure it is not reused

variable dir delete

# uyy Perturbation

variable dir equal 2
include displace.mod
# NOTE: This script should not need to be
# modified. See in.elastic for more info.
#
# Find which reference length to use

if "${dir} == 1" then    "variable len0 equal ${lx0}"
if "${dir} == 2" then    "variable len0 equal ${ly0}"
variable len0 equal ${ly0}
variable len0 equal 59.81132442
if "${dir} == 3" then    "variable len0 equal ${lz0}"
if "${dir} == 4" then    "variable len0 equal ${lz0}"
if "${dir} == 5" then    "variable len0 equal ${lz0}"
if "${dir} == 6" then    "variable len0 equal ${ly0}"

# Reset box and simulation parameters

clear
box tilt large
read_restart restart.equil
Reading restart file ...
  restart file = 24 Mar 2022, LAMMPS = 24 Mar 2022
  restoring atom style atomic from restart
  triclinic box = (0 0 0) to (69.064169 59.811324 87.316633) with tilt (-34.532084 0 0)
  4 by 3 by 4 MPI processor grid
  pair style nep stores no restart info
  13500 atoms
  read_restart CPU = 0.028 seconds
include potential.mod
# NOTE: This script can be modified for different pair styles
# See in.elastic for more info.

# we must undefine any fix ave/* fix before using reset_timestep
if "$(is_defined(fix,avp))" then "unfix avp"
reset_timestep 0

# MTP potential
pair_style  nep
pair_coeff  * * nep_y2026_m09_d04_h13_m17_s19_generation300000.txt Mg Bi


# Setup neighbor style
neighbor 1.0 nsq
neigh_modify once no every 1 delay 0 check yes

# Setup output

fix avp all ave/time  ${nevery} ${nrepeat} ${nfreq} c_thermo_press mode vector
fix avp all ave/time  10 ${nrepeat} ${nfreq} c_thermo_press mode vector
fix avp all ave/time  10 10 ${nfreq} c_thermo_press mode vector
fix avp all ave/time  10 10 100 c_thermo_press mode vector
thermo		${nthermo}
thermo		100
thermo_style custom step temp pe press f_avp[1] f_avp[2] f_avp[3] f_avp[4] f_avp[5] f_avp[6]
thermo_modify norm no

# Setup MD

timestep ${timestep}
timestep 0.001
fix 4 all nve
if "${thermostat} == 1" then    "fix 5 all langevin ${temp} ${temp} ${tdamp} ${seed}"
fix 5 all langevin ${temp} ${temp} ${tdamp} ${seed}
fix 5 all langevin 900 ${temp} ${tdamp} ${seed}
fix 5 all langevin 900 900 ${tdamp} ${seed}
fix 5 all langevin 900 900 0.01 ${seed}
fix 5 all langevin 900 900 0.01 123457



# Negative deformation

variable delta equal -${up}*${len0}
variable delta equal -0.02*${len0}
variable delta equal -0.02*59.81132442
variable deltaxy equal -${up}*xy
variable deltaxy equal -0.02*xy
variable deltaxz equal -${up}*xz
variable deltaxz equal -0.02*xz
variable deltayz equal -${up}*yz
variable deltayz equal -0.02*yz
if "${dir} == 1" then    "change_box all x delta 0 ${delta} xy delta ${deltaxy} xz delta ${deltaxz} remap units box"
if "${dir} == 2" then    "change_box all y delta 0 ${delta} yz delta ${deltayz} remap units box"
change_box all y delta 0 ${delta} yz delta ${deltayz} remap units box
change_box all y delta 0 -1.1962264884 yz delta ${deltayz} remap units box
change_box all y delta 0 -1.1962264884 yz delta -0 remap units box
Changing box ...
  triclinic box = (0 0 0) to (69.064169 58.615098 87.316633) with tilt (-34.532084 0 0)
  triclinic box = (0 0 0) to (69.064169 58.615098 87.316633) with tilt (-34.532084 0 0)
if "${dir} == 3" then    "change_box all z delta 0 ${delta} remap units box"
if "${dir} == 4" then    "change_box all yz delta ${delta} remap units box"
if "${dir} == 5" then    "change_box all xz delta ${delta} remap units box"
if "${dir} == 6" then    "change_box all xy delta ${delta} remap units box"

# Run MD

run ${nequil}
run 1000
Neighbor list info ...
  update every 1 steps, delay 0 steps, check yes
  max neighbors/atom: 2000, page size: 100000
  master list distance cutoff = 7
  ghost atom cutoff = 7
  1 neighbor lists, perpetual/occasional/extra = 1 0 0
  (1) pair nep, perpetual
      attributes: full, newton on
      pair build: full/nsq
      stencil: none
      bin: none
Per MPI rank memory allocation (min/avg/max) = 3.065 | 3.067 | 3.074 Mbytes
   Step          Temp          PotEng         Press         f_avp[1]       f_avp[2]       f_avp[3]       f_avp[4]       f_avp[5]       f_avp[6]   
         0   905.524       -40586.252      30116.046      0              0              0              0              0              0            
       100   900.10972     -40644.974      28917.458      28295.729      35166.934      24536.343     -135.26918      128.87646      256.82954    
       200   893.08839     -40650.948      28744.602      28832.133      33396.008      24462.907     -274.67108      250.73288     -235.68176    
       300   893.52797     -40642.251      28765.727      28220.988      33315.349      24465.237     -435.52934      271.80301     -3.7774875    
       400   894.51463     -40622.369      28843.013      28715.501      33279.329      24792.706     -341.2019       248.33591     -186.60096    
       500   908.74292     -40628.52       28881.944      28614.608      33105.867      24850.469     -188.63268      186.25822     -123.02265    
       600   898.43942     -40601.298      28850.84       28664.605      32914.142      24776.737      21.281539      104.22019     -197.72943    
       700   903.02818     -40617.166      28594.957      28653.295      32617.344      24417.239     -249.14955      191.19206     -81.153338    
       800   902.27629     -40596.655      29038.187      28935.228      32873.55       24797.345      54.11172       183.60894     -257.33379    
       900   904.78731     -40605.016      28651.87       28783.423      32796.589      24567.33      -86.080904      306.03296     -314.12259    
      1000   891.91436     -40601.841      28654.434      28901.812      32775.428      24434.491     -14.831719      160.61834     -193.52917    
Loop time of 15.4736 on 48 procs for 1000 steps with 13500 atoms

Performance: 5.584 ns/day, 4.298 hours/ns, 64.626 timesteps/s
99.6% CPU use with 48 MPI tasks x no OpenMP threads

MPI task timing breakdown:
Section |  min time  |  avg time  |  max time  |%varavg| %total
---------------------------------------------------------------
Pair    | 13.091     | 13.908     | 14.658     |  13.8 | 89.88
Neigh   | 0.059278   | 0.063844   | 0.068143   |   1.3 |  0.41
Comm    | 0.42326    | 1.2308     | 1.9747     |  46.0 |  7.95
Output  | 0.00046429 | 0.00050282 | 0.00080871 |   0.0 |  0.00
Modify  | 0.027782   | 0.066293   | 0.11308    |  10.5 |  0.43
Other   |            | 0.2041     |            |       |  1.32

Nlocal:         281.25 ave         297 max         263 min
Histogram: 2 5 7 4 5 1 3 9 8 4
Nghost:        1271.94 ave        1303 max        1238 min
Histogram: 2 5 11 5 1 0 2 8 12 2
Neighs:              0 ave           0 max           0 min
Histogram: 48 0 0 0 0 0 0 0 0 0
FullNghs:      14849.1 ave       15690 max       13888 min
Histogram: 2 7 7 4 4 0 4 7 6 7

Total # of neighbors = 712756
Ave neighs/atom = 52.796741
Neighbor list builds = 32
Dangerous builds = 0
include potential.mod
# NOTE: This script can be modified for different pair styles
# See in.elastic for more info.

# we must undefine any fix ave/* fix before using reset_timestep
if "$(is_defined(fix,avp))" then "unfix avp"
unfix avp
reset_timestep 0

# MTP potential
pair_style  nep
pair_coeff  * * nep_y2026_m09_d04_h13_m17_s19_generation300000.txt Mg Bi


# Setup neighbor style
neighbor 1.0 nsq
neigh_modify once no every 1 delay 0 check yes

# Setup output

fix avp all ave/time  ${nevery} ${nrepeat} ${nfreq} c_thermo_press mode vector
fix avp all ave/time  10 ${nrepeat} ${nfreq} c_thermo_press mode vector
fix avp all ave/time  10 10 ${nfreq} c_thermo_press mode vector
fix avp all ave/time  10 10 100 c_thermo_press mode vector
thermo		${nthermo}
thermo		100
thermo_style custom step temp pe press f_avp[1] f_avp[2] f_avp[3] f_avp[4] f_avp[5] f_avp[6]
WARNING: New thermo_style command, previous thermo_modify settings will be lost (../output.cpp:896)
thermo_modify norm no

# Setup MD

timestep ${timestep}
timestep 0.001
fix 4 all nve
if "${thermostat} == 1" then    "fix 5 all langevin ${temp} ${temp} ${tdamp} ${seed}"
fix 5 all langevin ${temp} ${temp} ${tdamp} ${seed}
fix 5 all langevin 900 ${temp} ${tdamp} ${seed}
fix 5 all langevin 900 900 ${tdamp} ${seed}
fix 5 all langevin 900 900 0.01 ${seed}
fix 5 all langevin 900 900 0.01 123457


run ${nrun}
run 300
Per MPI rank memory allocation (min/avg/max) = 3.066 | 3.07 | 3.081 Mbytes
   Step          Temp          PotEng         Press         f_avp[1]       f_avp[2]       f_avp[3]       f_avp[4]       f_avp[5]       f_avp[6]   
         0   891.91436     -40601.841      28654.434      0              0              0              0              0              0            
       100   900.49226     -40599.93       28779.942      29039.476      32732.224      24621.045      127.47159      19.219708     -138.37883    
       200   897.41809     -40563.861      29167.008      28709.026      33458.477      24761.961      225.2196      -34.907605      34.87975     
       300   907.45478     -40590.024      28929.419      29051.854      33133.196      24726.928     -205.92765      134.64687     -93.111929    
Loop time of 4.54026 on 48 procs for 300 steps with 13500 atoms

Performance: 5.709 ns/day, 4.204 hours/ns, 66.076 timesteps/s
99.6% CPU use with 48 MPI tasks x no OpenMP threads

MPI task timing breakdown:
Section |  min time  |  avg time  |  max time  |%varavg| %total
---------------------------------------------------------------
Pair    | 3.8697     | 4.1734     | 4.44       |   7.9 | 91.92
Neigh   | 0.016459   | 0.017938   | 0.019259   |   0.7 |  0.40
Comm    | 0.051546   | 0.31361    | 0.62894    |  27.8 |  6.91
Output  | 0.00017927 | 0.00019396 | 0.00023621 |   0.0 |  0.00
Modify  | 0.0054451  | 0.0076309  | 0.013398   |   2.3 |  0.17
Other   |            | 0.02748    |            |       |  0.61

Nlocal:         281.25 ave         296 max         262 min
Histogram: 2 3 8 5 4 3 2 6 7 8
Nghost:        1273.58 ave        1303 max        1242 min
Histogram: 4 7 9 3 1 0 0 9 9 6
Neighs:              0 ave           0 max           0 min
Histogram: 48 0 0 0 0 0 0 0 0 0
FullNghs:      14854.9 ave       15769 max       13842 min
Histogram: 3 4 9 4 3 3 5 4 9 4

Total # of neighbors = 713034
Ave neighs/atom = 52.817333
Neighbor list builds = 9
Dangerous builds = 0

# Obtain new stress tensor

variable pxx1 equal f_avp[1]
variable pyy1 equal f_avp[2]
variable pzz1 equal f_avp[3]
variable pxy1 equal f_avp[4]
variable pxz1 equal f_avp[5]
variable pyz1 equal f_avp[6]

# Compute elastic constant from pressure tensor

variable C1neg equal ${d1}
variable C1neg equal 41.814374279226
variable C2neg equal ${d2}
variable C2neg equal 64.958438980715
variable C3neg equal ${d3}
variable C3neg equal 31.456883031517
variable C4neg equal ${d4}
variable C4neg equal 0.117014158894036
variable C5neg equal ${d5}
variable C5neg equal 0.21262399529522
variable C6neg equal ${d6}
variable C6neg equal -0.674104683410284

# Reset box and simulation parameters

clear
box tilt large
read_restart restart.equil
Reading restart file ...
  restart file = 24 Mar 2022, LAMMPS = 24 Mar 2022
  restoring atom style atomic from restart
  triclinic box = (0 0 0) to (69.064169 59.811324 87.316633) with tilt (-34.532084 0 0)
  4 by 3 by 4 MPI processor grid
  pair style nep stores no restart info
  13500 atoms
  read_restart CPU = 0.004 seconds
include potential.mod
# NOTE: This script can be modified for different pair styles
# See in.elastic for more info.

# we must undefine any fix ave/* fix before using reset_timestep
if "$(is_defined(fix,avp))" then "unfix avp"
reset_timestep 0

# MTP potential
pair_style  nep
pair_coeff  * * nep_y2026_m09_d04_h13_m17_s19_generation300000.txt Mg Bi


# Setup neighbor style
neighbor 1.0 nsq
neigh_modify once no every 1 delay 0 check yes

# Setup output

fix avp all ave/time  ${nevery} ${nrepeat} ${nfreq} c_thermo_press mode vector
fix avp all ave/time  10 ${nrepeat} ${nfreq} c_thermo_press mode vector
fix avp all ave/time  10 10 ${nfreq} c_thermo_press mode vector
fix avp all ave/time  10 10 100 c_thermo_press mode vector
thermo		${nthermo}
thermo		100
thermo_style custom step temp pe press f_avp[1] f_avp[2] f_avp[3] f_avp[4] f_avp[5] f_avp[6]
thermo_modify norm no

# Setup MD

timestep ${timestep}
timestep 0.001
fix 4 all nve
if "${thermostat} == 1" then    "fix 5 all langevin ${temp} ${temp} ${tdamp} ${seed}"
fix 5 all langevin ${temp} ${temp} ${tdamp} ${seed}
fix 5 all langevin 900 ${temp} ${tdamp} ${seed}
fix 5 all langevin 900 900 ${tdamp} ${seed}
fix 5 all langevin 900 900 0.01 ${seed}
fix 5 all langevin 900 900 0.01 123457



# Positive deformation

variable delta equal ${up}*${len0}
variable delta equal 0.02*${len0}
variable delta equal 0.02*59.81132442
variable deltaxy equal ${up}*xy
variable deltaxy equal 0.02*xy
variable deltaxz equal ${up}*xz
variable deltaxz equal 0.02*xz
variable deltayz equal ${up}*yz
variable deltayz equal 0.02*yz
if "${dir} == 1" then    "change_box all x delta 0 ${delta} xy delta ${deltaxy} xz delta ${deltaxz} remap units box"
if "${dir} == 2" then    "change_box all y delta 0 ${delta} yz delta ${deltayz} remap units box"
change_box all y delta 0 ${delta} yz delta ${deltayz} remap units box
change_box all y delta 0 1.1962264884 yz delta ${deltayz} remap units box
change_box all y delta 0 1.1962264884 yz delta 0 remap units box
Changing box ...
  triclinic box = (0 0 0) to (69.064169 61.007551 87.316633) with tilt (-34.532084 0 0)
  triclinic box = (0 0 0) to (69.064169 61.007551 87.316633) with tilt (-34.532084 0 0)
if "${dir} == 3" then    "change_box all z delta 0 ${delta} remap units box"
if "${dir} == 4" then    "change_box all yz delta ${delta} remap units box"
if "${dir} == 5" then    "change_box all xz delta ${delta} remap units box"
if "${dir} == 6" then    "change_box all xy delta ${delta} remap units box"

# Run MD

run ${nequil}
run 1000
Neighbor list info ...
  update every 1 steps, delay 0 steps, check yes
  max neighbors/atom: 2000, page size: 100000
  master list distance cutoff = 7
  ghost atom cutoff = 7
  1 neighbor lists, perpetual/occasional/extra = 1 0 0
  (1) pair nep, perpetual
      attributes: full, newton on
      pair build: full/nsq
      stencil: none
      bin: none
Per MPI rank memory allocation (min/avg/max) = 3.065 | 3.069 | 3.08 Mbytes
   Step          Temp          PotEng         Press         f_avp[1]       f_avp[2]       f_avp[3]       f_avp[4]       f_avp[5]       f_avp[6]   
         0   905.524       -40731.475      10724.961      0              0              0              0              0              0            
       100   905.95442     -40680.274      11368.718      13966.471      6752.6224      12471.007     -150.82395      121.01013     -477.16858    
       200   902.86763     -40661.74       11672.176      13765.107      8475.7511      12726.18      -500.44223      346.25118      35.822134    
       300   905.11938     -40642.294      11930.93       13630.977      8640.6851      12864.447     -453.55786      318.28094      38.845223    
       400   909.72635     -40632.509      12119.441      14144.931      8792.7973      13297.831     -236.57268      143.5906       6.8448794    
       500   912.72529     -40629.49       12117.538      14223.67       8734.9399      12986.361      19.451139     -91.015931     -25.090395    
       600   893.14714     -40630.48       12004.437      14243.811      9198.514       12902.057     -95.489531      93.321614      41.058384    
       700   907.90331     -40610.131      12223.423      13853.989      9432.358       12743.197      36.65037       39.307204      326.05491    
       800   902.59789     -40605.372      12318.246      14053.936      9263.3382      13263.297     -313.2461       142.31072      242.79927    
       900   907.55532     -40610.429      12263.734      14366.027      9439.6858      13019.127     -160.51742     -41.410319      222.09428    
      1000   901.66329     -40599.555      12316.499      14026.044      9703.9873      13090.951     -244.78979      71.45639       312.67574    
Loop time of 14.9022 on 48 procs for 1000 steps with 13500 atoms

Performance: 5.798 ns/day, 4.140 hours/ns, 67.104 timesteps/s
99.6% CPU use with 48 MPI tasks x no OpenMP threads

MPI task timing breakdown:
Section |  min time  |  avg time  |  max time  |%varavg| %total
---------------------------------------------------------------
Pair    | 12.559     | 13.46      | 14.289     |  14.0 | 90.32
Neigh   | 0.058225   | 0.062633   | 0.067098   |   1.3 |  0.42
Comm    | 0.2741     | 1.1263     | 2.0283     |  47.8 |  7.56
Output  | 0.00040101 | 0.00044309 | 0.00056978 |   0.0 |  0.00
Modify  | 0.018323   | 0.043056   | 0.07467    |   7.4 |  0.29
Other   |            | 0.2102     |            |       |  1.41

Nlocal:         281.25 ave         300 max         265 min
Histogram: 3 7 12 2 1 4 5 6 5 3
Nghost:        1245.25 ave        1277 max        1217 min
Histogram: 8 10 3 2 1 1 4 7 9 3
Neighs:              0 ave           0 max           0 min
Histogram: 48 0 0 0 0 0 0 0 0 0
FullNghs:      14196.5 ave       15201 max       13404 min
Histogram: 4 10 8 3 1 6 2 7 4 3

Total # of neighbors = 681430
Ave neighs/atom = 50.476296
Neighbor list builds = 32
Dangerous builds = 0
include potential.mod
# NOTE: This script can be modified for different pair styles
# See in.elastic for more info.

# we must undefine any fix ave/* fix before using reset_timestep
if "$(is_defined(fix,avp))" then "unfix avp"
unfix avp
reset_timestep 0

# MTP potential
pair_style  nep
pair_coeff  * * nep_y2026_m09_d04_h13_m17_s19_generation300000.txt Mg Bi


# Setup neighbor style
neighbor 1.0 nsq
neigh_modify once no every 1 delay 0 check yes

# Setup output

fix avp all ave/time  ${nevery} ${nrepeat} ${nfreq} c_thermo_press mode vector
fix avp all ave/time  10 ${nrepeat} ${nfreq} c_thermo_press mode vector
fix avp all ave/time  10 10 ${nfreq} c_thermo_press mode vector
fix avp all ave/time  10 10 100 c_thermo_press mode vector
thermo		${nthermo}
thermo		100
thermo_style custom step temp pe press f_avp[1] f_avp[2] f_avp[3] f_avp[4] f_avp[5] f_avp[6]
WARNING: New thermo_style command, previous thermo_modify settings will be lost (../output.cpp:896)
thermo_modify norm no

# Setup MD

timestep ${timestep}
timestep 0.001
fix 4 all nve
if "${thermostat} == 1" then    "fix 5 all langevin ${temp} ${temp} ${tdamp} ${seed}"
fix 5 all langevin ${temp} ${temp} ${tdamp} ${seed}
fix 5 all langevin 900 ${temp} ${tdamp} ${seed}
fix 5 all langevin 900 900 ${tdamp} ${seed}
fix 5 all langevin 900 900 0.01 ${seed}
fix 5 all langevin 900 900 0.01 123457


run ${nrun}
run 300
Per MPI rank memory allocation (min/avg/max) = 3.065 | 3.074 | 3.081 Mbytes
   Step          Temp          PotEng         Press         f_avp[1]       f_avp[2]       f_avp[3]       f_avp[4]       f_avp[5]       f_avp[6]   
         0   901.66329     -40599.555      12316.499      0              0              0              0              0              0            
       100   911.24171     -40586.103      12462.239      13922.211      9871.6612      13283.362     -93.676776     -6.1069618      454.05892    
       200   898.75162     -40606.716      12127.361      13744.607      10065.583      13011.562      42.968325     -76.955029      573.75373    
       300   904.68677     -40599.851      12067.494      13828.66       9358.6848      12956.163      32.711199     -116.29965      475.68442    
Loop time of 4.46852 on 48 procs for 300 steps with 13500 atoms

Performance: 5.801 ns/day, 4.138 hours/ns, 67.136 timesteps/s
99.6% CPU use with 48 MPI tasks x no OpenMP threads

MPI task timing breakdown:
Section |  min time  |  avg time  |  max time  |%varavg| %total
---------------------------------------------------------------
Pair    | 3.8        | 4.0399     | 4.3191     |   7.5 | 90.41
Neigh   | 0.018133   | 0.019503   | 0.021115   |   0.7 |  0.44
Comm    | 0.11236    | 0.338      | 0.55695    |  22.7 |  7.56
Output  | 0.00012734 | 0.00013937 | 0.00017142 |   0.0 |  0.00
Modify  | 0.0054346  | 0.018538   | 0.038932   |   9.5 |  0.41
Other   |            | 0.05244    |            |       |  1.17

Nlocal:         281.25 ave         298 max         268 min
Histogram: 8 10 4 2 0 3 2 11 5 3
Nghost:        1243.96 ave        1272 max        1211 min
Histogram: 5 3 8 6 2 0 1 4 13 6
Neighs:              0 ave           0 max           0 min
Histogram: 48 0 0 0 0 0 0 0 0 0
FullNghs:      14198.7 ave       15071 max       13550 min
Histogram: 16 2 5 1 1 1 7 8 4 3

Total # of neighbors = 681536
Ave neighs/atom = 50.484148
Neighbor list builds = 10
Dangerous builds = 0

# Obtain new stress tensor

variable pxx1 equal f_avp[1]
variable pyy1 equal f_avp[2]
variable pzz1 equal f_avp[3]
variable pxy1 equal f_avp[4]
variable pxz1 equal f_avp[5]
variable pyz1 equal f_avp[6]

# Compute elastic constant from pressure tensor

variable C1pos equal ${d1}
variable C1pos equal 34.3015947782315
variable C2pos equal ${d2}
variable C2pos equal 53.9141188906748
variable C3pos equal ${d3}
variable C3pos equal 27.3969400411095
variable C4pos equal ${d4}
variable C4pos equal -2.96099588445133
variable C5pos equal ${d5}
variable C5pos equal 1.04210862881296
variable C6pos equal ${d6}
variable C6pos equal -0.519089551498355

# Combine positive and negative

variable C1${dir} equal 0.5*(${C1neg}+${C1pos})
variable C12 equal 0.5*(${C1neg}+${C1pos})
variable C12 equal 0.5*(41.814374279226+${C1pos})
variable C12 equal 0.5*(41.814374279226+34.3015947782315)
variable C2${dir} equal 0.5*(${C2neg}+${C2pos})
variable C22 equal 0.5*(${C2neg}+${C2pos})
variable C22 equal 0.5*(64.958438980715+${C2pos})
variable C22 equal 0.5*(64.958438980715+53.9141188906748)
variable C3${dir} equal 0.5*(${C3neg}+${C3pos})
variable C32 equal 0.5*(${C3neg}+${C3pos})
variable C32 equal 0.5*(31.456883031517+${C3pos})
variable C32 equal 0.5*(31.456883031517+27.3969400411095)
variable C4${dir} equal 0.5*(${C4neg}+${C4pos})
variable C42 equal 0.5*(${C4neg}+${C4pos})
variable C42 equal 0.5*(0.117014158894036+${C4pos})
variable C42 equal 0.5*(0.117014158894036+-2.96099588445133)
variable C5${dir} equal 0.5*(${C5neg}+${C5pos})
variable C52 equal 0.5*(${C5neg}+${C5pos})
variable C52 equal 0.5*(0.21262399529522+${C5pos})
variable C52 equal 0.5*(0.21262399529522+1.04210862881296)
variable C6${dir} equal 0.5*(${C6neg}+${C6pos})
variable C62 equal 0.5*(${C6neg}+${C6pos})
variable C62 equal 0.5*(-0.674104683410284+${C6pos})
variable C62 equal 0.5*(-0.674104683410284+-0.519089551498355)

# Delete dir to make sure it is not reused

variable dir delete

# uzz Perturbation

variable dir equal 3
include displace.mod
# NOTE: This script should not need to be
# modified. See in.elastic for more info.
#
# Find which reference length to use

if "${dir} == 1" then    "variable len0 equal ${lx0}"
if "${dir} == 2" then    "variable len0 equal ${ly0}"
if "${dir} == 3" then    "variable len0 equal ${lz0}"
variable len0 equal ${lz0}
variable len0 equal 87.316633332
if "${dir} == 4" then    "variable len0 equal ${lz0}"
if "${dir} == 5" then    "variable len0 equal ${lz0}"
if "${dir} == 6" then    "variable len0 equal ${ly0}"

# Reset box and simulation parameters

clear
box tilt large
read_restart restart.equil
Reading restart file ...
  restart file = 24 Mar 2022, LAMMPS = 24 Mar 2022
  restoring atom style atomic from restart
  triclinic box = (0 0 0) to (69.064169 59.811324 87.316633) with tilt (-34.532084 0 0)
  4 by 3 by 4 MPI processor grid
  pair style nep stores no restart info
  13500 atoms
  read_restart CPU = 0.101 seconds
include potential.mod
# NOTE: This script can be modified for different pair styles
# See in.elastic for more info.

# we must undefine any fix ave/* fix before using reset_timestep
if "$(is_defined(fix,avp))" then "unfix avp"
reset_timestep 0

# MTP potential
pair_style  nep
pair_coeff  * * nep_y2026_m09_d04_h13_m17_s19_generation300000.txt Mg Bi


# Setup neighbor style
neighbor 1.0 nsq
neigh_modify once no every 1 delay 0 check yes

# Setup output

fix avp all ave/time  ${nevery} ${nrepeat} ${nfreq} c_thermo_press mode vector
fix avp all ave/time  10 ${nrepeat} ${nfreq} c_thermo_press mode vector
fix avp all ave/time  10 10 ${nfreq} c_thermo_press mode vector
fix avp all ave/time  10 10 100 c_thermo_press mode vector
thermo		${nthermo}
thermo		100
thermo_style custom step temp pe press f_avp[1] f_avp[2] f_avp[3] f_avp[4] f_avp[5] f_avp[6]
thermo_modify norm no

# Setup MD

timestep ${timestep}
timestep 0.001
fix 4 all nve
if "${thermostat} == 1" then    "fix 5 all langevin ${temp} ${temp} ${tdamp} ${seed}"
fix 5 all langevin ${temp} ${temp} ${tdamp} ${seed}
fix 5 all langevin 900 ${temp} ${tdamp} ${seed}
fix 5 all langevin 900 900 ${tdamp} ${seed}
fix 5 all langevin 900 900 0.01 ${seed}
fix 5 all langevin 900 900 0.01 123457



# Negative deformation

variable delta equal -${up}*${len0}
variable delta equal -0.02*${len0}
variable delta equal -0.02*87.316633332
variable deltaxy equal -${up}*xy
variable deltaxy equal -0.02*xy
variable deltaxz equal -${up}*xz
variable deltaxz equal -0.02*xz
variable deltayz equal -${up}*yz
variable deltayz equal -0.02*yz
if "${dir} == 1" then    "change_box all x delta 0 ${delta} xy delta ${deltaxy} xz delta ${deltaxz} remap units box"
if "${dir} == 2" then    "change_box all y delta 0 ${delta} yz delta ${deltayz} remap units box"
if "${dir} == 3" then    "change_box all z delta 0 ${delta} remap units box"
change_box all z delta 0 ${delta} remap units box
change_box all z delta 0 -1.74633266664 remap units box
Changing box ...
  triclinic box = (0 0 0) to (69.064169 59.811324 85.570301) with tilt (-34.532084 0 0)
if "${dir} == 4" then    "change_box all yz delta ${delta} remap units box"
if "${dir} == 5" then    "change_box all xz delta ${delta} remap units box"
if "${dir} == 6" then    "change_box all xy delta ${delta} remap units box"

# Run MD

run ${nequil}
run 1000
Neighbor list info ...
  update every 1 steps, delay 0 steps, check yes
  max neighbors/atom: 2000, page size: 100000
  master list distance cutoff = 7
  ghost atom cutoff = 7
  1 neighbor lists, perpetual/occasional/extra = 1 0 0
  (1) pair nep, perpetual
      attributes: full, newton on
      pair build: full/nsq
      stencil: none
      bin: none
Per MPI rank memory allocation (min/avg/max) = 3.066 | 3.073 | 3.081 Mbytes
   Step          Temp          PotEng         Press         f_avp[1]       f_avp[2]       f_avp[3]       f_avp[4]       f_avp[5]       f_avp[6]   
         0   905.524       -40594.032      30072.335      0              0              0              0              0              0            
       100   901.47446     -40633.578      29191.545      27266.108      26734.523      34328.477     -160.75442      169.1208      -273.34726    
       200   890.69801     -40623.78       29142.255      27305.727      27055.834      33110.907      30.406524      20.716257     -61.829172    
       300   901.79458     -40619.507      28990.649      27083.282      26988.253      33060.876      73.934878      3.4126903      39.193458    
       400   892.9395      -40608.569      28972.63       27012.586      26894.37       32959.137      181.42222     -185.33704      42.48604     
       500   906.8075      -40602.36       28976.769      27406.988      26926.86       32801.661      32.810644     -17.456127     -209.69663    
       600   893.7593      -40598.651      28908.813      26937.717      26991.634      32758.464     -55.949605      226.45754      35.277274    
       700   902.58486     -40573.703      29172.809      26991.034      27357.397      32927.578      192.26489     -130.90228      97.158088    
       800   899.82694     -40598.145      29064.667      27118.011      27194.485      32999.561      151.28904     -76.690608     -127.1685     
       900   894.90359     -40572.94       29362.979      27486.167      27540.145      32812.553     -126.13274      160.14991      155.24292    
      1000   894.58519     -40584.396      28935.739      26978.517      27540.079      32684.165      95.427633      71.597406      264.52199    
Loop time of 15.2777 on 48 procs for 1000 steps with 13500 atoms

Performance: 5.655 ns/day, 4.244 hours/ns, 65.455 timesteps/s
99.6% CPU use with 48 MPI tasks x no OpenMP threads

MPI task timing breakdown:
Section |  min time  |  avg time  |  max time  |%varavg| %total
---------------------------------------------------------------
Pair    | 13.046     | 13.868     | 14.679     |  14.2 | 90.77
Neigh   | 0.059618   | 0.064137   | 0.068342   |   1.3 |  0.42
Comm    | 0.30763    | 1.1289     | 1.9519     |  48.2 |  7.39
Output  | 0.00043181 | 0.00045716 | 0.00057974 |   0.0 |  0.00
Modify  | 0.022852   | 0.049806   | 0.068215   |   3.6 |  0.33
Other   |            | 0.1664     |            |       |  1.09

Nlocal:         281.25 ave         301 max         263 min
Histogram: 4 4 11 2 3 3 8 8 3 2
Nghost:        1282.52 ave        1313 max        1253 min
Histogram: 5 11 5 1 1 3 2 5 9 6
Neighs:              0 ave           0 max           0 min
Histogram: 48 0 0 0 0 0 0 0 0 0
FullNghs:      14724.8 ave       15786 max       13748 min
Histogram: 3 5 10 3 5 2 8 7 4 1

Total # of neighbors = 706792
Ave neighs/atom = 52.354963
Neighbor list builds = 32
Dangerous builds = 0
include potential.mod
# NOTE: This script can be modified for different pair styles
# See in.elastic for more info.

# we must undefine any fix ave/* fix before using reset_timestep
if "$(is_defined(fix,avp))" then "unfix avp"
unfix avp
reset_timestep 0

# MTP potential
pair_style  nep
pair_coeff  * * nep_y2026_m09_d04_h13_m17_s19_generation300000.txt Mg Bi


# Setup neighbor style
neighbor 1.0 nsq
neigh_modify once no every 1 delay 0 check yes

# Setup output

fix avp all ave/time  ${nevery} ${nrepeat} ${nfreq} c_thermo_press mode vector
fix avp all ave/time  10 ${nrepeat} ${nfreq} c_thermo_press mode vector
fix avp all ave/time  10 10 ${nfreq} c_thermo_press mode vector
fix avp all ave/time  10 10 100 c_thermo_press mode vector
thermo		${nthermo}
thermo		100
thermo_style custom step temp pe press f_avp[1] f_avp[2] f_avp[3] f_avp[4] f_avp[5] f_avp[6]
WARNING: New thermo_style command, previous thermo_modify settings will be lost (../output.cpp:896)
thermo_modify norm no

# Setup MD

timestep ${timestep}
timestep 0.001
fix 4 all nve
if "${thermostat} == 1" then    "fix 5 all langevin ${temp} ${temp} ${tdamp} ${seed}"
fix 5 all langevin ${temp} ${temp} ${tdamp} ${seed}
fix 5 all langevin 900 ${temp} ${tdamp} ${seed}
fix 5 all langevin 900 900 ${tdamp} ${seed}
fix 5 all langevin 900 900 0.01 ${seed}
fix 5 all langevin 900 900 0.01 123457


run ${nrun}
run 300
Per MPI rank memory allocation (min/avg/max) = 3.073 | 3.078 | 3.082 Mbytes
   Step          Temp          PotEng         Press         f_avp[1]       f_avp[2]       f_avp[3]       f_avp[4]       f_avp[5]       f_avp[6]   
         0   894.58519     -40584.396      28935.739      0              0              0              0              0              0            
       100   899.80598     -40588.066      28806.739      26875.471      27164.572      32371.744      127.41388      27.948598      268.69497    
       200   901.569       -40587.057      28971.757      27018.176      26926.666      32604.474      10.724863      183.53191     -80.262907    
       300   893.46218     -40579.282      28772.784      27067.636      27230.633      32437.747     -189.20664      211.80201     -43.177353    
Loop time of 4.58757 on 48 procs for 300 steps with 13500 atoms

Performance: 5.650 ns/day, 4.248 hours/ns, 65.394 timesteps/s
99.6% CPU use with 48 MPI tasks x no OpenMP threads

MPI task timing breakdown:
Section |  min time  |  avg time  |  max time  |%varavg| %total
---------------------------------------------------------------
Pair    | 3.9306     | 4.1627     | 4.4786     |   7.7 | 90.74
Neigh   | 0.018597   | 0.020088   | 0.02186    |   0.7 |  0.44
Comm    | 0.07235    | 0.35211    | 0.60007    |  25.4 |  7.68
Output  | 0.00010408 | 0.00011905 | 0.00014743 |   0.0 |  0.00
Modify  | 0.0053542  | 0.0076586  | 0.012412   |   2.8 |  0.17
Other   |            | 0.0449     |            |       |  0.98

Nlocal:         281.25 ave         300 max         265 min
Histogram: 4 9 7 3 1 6 5 2 9 2
Nghost:         1283.9 ave        1317 max        1254 min
Histogram: 5 8 7 3 1 1 8 7 5 3
Neighs:              0 ave           0 max           0 min
Histogram: 48 0 0 0 0 0 0 0 0 0
FullNghs:      14739.2 ave       15756 max       13852 min
Histogram: 3 13 5 3 1 5 4 4 5 5

Total # of neighbors = 707484
Ave neighs/atom = 52.406222
Neighbor list builds = 10
Dangerous builds = 0

# Obtain new stress tensor

variable pxx1 equal f_avp[1]
variable pyy1 equal f_avp[2]
variable pzz1 equal f_avp[3]
variable pxy1 equal f_avp[4]
variable pxz1 equal f_avp[5]
variable pyz1 equal f_avp[6]

# Compute elastic constant from pressure tensor

variable C1neg equal ${d1}
variable C1neg equal 31.893284353693
variable C2neg equal ${d2}
variable C2neg equal 35.4456242362435
variable C3neg equal ${d3}
variable C3neg equal 70.0109779407375
variable C4neg equal ${d4}
variable C4neg equal 0.366687040154341
variable C5neg equal ${d5}
variable C5neg equal 0.59839968061429
variable C6neg equal ${d6}
variable C6neg equal -0.590499665963044

# Reset box and simulation parameters

clear
box tilt large
read_restart restart.equil
Reading restart file ...
  restart file = 24 Mar 2022, LAMMPS = 24 Mar 2022
  restoring atom style atomic from restart
  triclinic box = (0 0 0) to (69.064169 59.811324 87.316633) with tilt (-34.532084 0 0)
  4 by 3 by 4 MPI processor grid
  pair style nep stores no restart info
  13500 atoms
  read_restart CPU = 0.003 seconds
include potential.mod
# NOTE: This script can be modified for different pair styles
# See in.elastic for more info.

# we must undefine any fix ave/* fix before using reset_timestep
if "$(is_defined(fix,avp))" then "unfix avp"
reset_timestep 0

# MTP potential
pair_style  nep
pair_coeff  * * nep_y2026_m09_d04_h13_m17_s19_generation300000.txt Mg Bi


# Setup neighbor style
neighbor 1.0 nsq
neigh_modify once no every 1 delay 0 check yes

# Setup output

fix avp all ave/time  ${nevery} ${nrepeat} ${nfreq} c_thermo_press mode vector
fix avp all ave/time  10 ${nrepeat} ${nfreq} c_thermo_press mode vector
fix avp all ave/time  10 10 ${nfreq} c_thermo_press mode vector
fix avp all ave/time  10 10 100 c_thermo_press mode vector
thermo		${nthermo}
thermo		100
thermo_style custom step temp pe press f_avp[1] f_avp[2] f_avp[3] f_avp[4] f_avp[5] f_avp[6]
thermo_modify norm no

# Setup MD

timestep ${timestep}
timestep 0.001
fix 4 all nve
if "${thermostat} == 1" then    "fix 5 all langevin ${temp} ${temp} ${tdamp} ${seed}"
fix 5 all langevin ${temp} ${temp} ${tdamp} ${seed}
fix 5 all langevin 900 ${temp} ${tdamp} ${seed}
fix 5 all langevin 900 900 ${tdamp} ${seed}
fix 5 all langevin 900 900 0.01 ${seed}
fix 5 all langevin 900 900 0.01 123457



# Positive deformation

variable delta equal ${up}*${len0}
variable delta equal 0.02*${len0}
variable delta equal 0.02*87.316633332
variable deltaxy equal ${up}*xy
variable deltaxy equal 0.02*xy
variable deltaxz equal ${up}*xz
variable deltaxz equal 0.02*xz
variable deltayz equal ${up}*yz
variable deltayz equal 0.02*yz
if "${dir} == 1" then    "change_box all x delta 0 ${delta} xy delta ${deltaxy} xz delta ${deltaxz} remap units box"
if "${dir} == 2" then    "change_box all y delta 0 ${delta} yz delta ${deltayz} remap units box"
if "${dir} == 3" then    "change_box all z delta 0 ${delta} remap units box"
change_box all z delta 0 ${delta} remap units box
change_box all z delta 0 1.74633266664 remap units box
Changing box ...
  triclinic box = (0 0 0) to (69.064169 59.811324 89.062966) with tilt (-34.532084 0 0)
if "${dir} == 4" then    "change_box all yz delta ${delta} remap units box"
if "${dir} == 5" then    "change_box all xz delta ${delta} remap units box"
if "${dir} == 6" then    "change_box all xy delta ${delta} remap units box"

# Run MD

run ${nequil}
run 1000
Neighbor list info ...
  update every 1 steps, delay 0 steps, check yes
  max neighbors/atom: 2000, page size: 100000
  master list distance cutoff = 7
  ghost atom cutoff = 7
  1 neighbor lists, perpetual/occasional/extra = 1 0 0
  (1) pair nep, perpetual
      attributes: full, newton on
      pair build: full/nsq
      stencil: none
      bin: none
Per MPI rank memory allocation (min/avg/max) = 3.065 | 3.067 | 3.074 Mbytes
   Step          Temp          PotEng         Press         f_avp[1]       f_avp[2]       f_avp[3]       f_avp[4]       f_avp[5]       f_avp[6]   
         0   905.524       -40722.453      10743.454      0              0              0              0              0              0            
       100   899.04784     -40678.359      11398.267      14929.102      14451.372      3870.6241     -167.83644      154.61636     -275.37952    
       200   895.28222     -40630.804      11859.426      15317.343      14718.972      5126.3824     -136.53345      186.47232     -349.37531    
       300   898.75341     -40626.633      11762.727      15162.925      14682.076      5304.7837     -164.5267      -11.315636     -212.84537    
       400   897.98693     -40630.411      11732.526      15116.03       14704.966      5294.7741     -74.87853      -35.946034     -67.379588    
       500   892.48902     -40623.523      11735.689      14930.195      14949.009      5643.842       160.74651     -206.85107      33.101246    
       600   897.3905      -40611.934      11943.338      14845.286      14981.619      5807.0455      146.37092     -189.2303       39.493657    
       700   903.39326     -40594.809      12206.335      15180.354      14788.848      6180.5824      40.159489     -228.28733      2.2369199    
       800   893.06129     -40602.326      12106.772      15330.134      15338.429      6191.7147      156.69266     -233.17355      59.562718    
       900   896.01862     -40594.732      12094.488      15032.78       14846.203      6291.1455     -193.29996      37.567413     -26.147543    
      1000   903.56925     -40591.262      12289.824      15082.155      14878.116      6570.4108     -201.03464      77.95568      -21.812899    
Loop time of 15.0753 on 48 procs for 1000 steps with 13500 atoms

Performance: 5.731 ns/day, 4.188 hours/ns, 66.334 timesteps/s
99.6% CPU use with 48 MPI tasks x no OpenMP threads

MPI task timing breakdown:
Section |  min time  |  avg time  |  max time  |%varavg| %total
---------------------------------------------------------------
Pair    | 12.641     | 13.488     | 14.352     |  13.8 | 89.47
Neigh   | 0.058486   | 0.063014   | 0.06724    |   1.3 |  0.42
Comm    | 0.40743    | 1.2132     | 2.1258     |  44.7 |  8.05
Output  | 0.00042661 | 0.00045065 | 0.00057801 |   0.0 |  0.00
Modify  | 0.018808   | 0.028051   | 0.041217   |   4.2 |  0.19
Other   |            | 0.2829     |            |       |  1.88

Nlocal:         281.25 ave         296 max         267 min
Histogram: 6 7 7 2 1 3 4 6 8 4
Nghost:        1255.69 ave        1284 max        1218 min
Histogram: 1 5 5 10 3 0 2 4 6 12
Neighs:              0 ave           0 max           0 min
Histogram: 48 0 0 0 0 0 0 0 0 0
FullNghs:      14264.4 ave       15060 max       13360 min
Histogram: 1 5 10 5 2 3 4 6 8 4

Total # of neighbors = 684690
Ave neighs/atom = 50.717778
Neighbor list builds = 32
Dangerous builds = 0
include potential.mod
# NOTE: This script can be modified for different pair styles
# See in.elastic for more info.

# we must undefine any fix ave/* fix before using reset_timestep
if "$(is_defined(fix,avp))" then "unfix avp"
unfix avp
reset_timestep 0

# MTP potential
pair_style  nep
pair_coeff  * * nep_y2026_m09_d04_h13_m17_s19_generation300000.txt Mg Bi


# Setup neighbor style
neighbor 1.0 nsq
neigh_modify once no every 1 delay 0 check yes

# Setup output

fix avp all ave/time  ${nevery} ${nrepeat} ${nfreq} c_thermo_press mode vector
fix avp all ave/time  10 ${nrepeat} ${nfreq} c_thermo_press mode vector
fix avp all ave/time  10 10 ${nfreq} c_thermo_press mode vector
fix avp all ave/time  10 10 100 c_thermo_press mode vector
thermo		${nthermo}
thermo		100
thermo_style custom step temp pe press f_avp[1] f_avp[2] f_avp[3] f_avp[4] f_avp[5] f_avp[6]
WARNING: New thermo_style command, previous thermo_modify settings will be lost (../output.cpp:896)
thermo_modify norm no

# Setup MD

timestep ${timestep}
timestep 0.001
fix 4 all nve
if "${thermostat} == 1" then    "fix 5 all langevin ${temp} ${temp} ${tdamp} ${seed}"
fix 5 all langevin ${temp} ${temp} ${tdamp} ${seed}
fix 5 all langevin 900 ${temp} ${tdamp} ${seed}
fix 5 all langevin 900 900 ${tdamp} ${seed}
fix 5 all langevin 900 900 0.01 ${seed}
fix 5 all langevin 900 900 0.01 123457


run ${nrun}
run 300
Per MPI rank memory allocation (min/avg/max) = 3.065 | 3.068 | 3.08 Mbytes
   Step          Temp          PotEng         Press         f_avp[1]       f_avp[2]       f_avp[3]       f_avp[4]       f_avp[5]       f_avp[6]   
         0   903.56925     -40591.262      12289.824      0              0              0              0              0              0            
       100   901.10273     -40588.769      12296.044      15408.423      15042.61       6373.193      -138.12134      62.035432     -163.45706    
       200   885.58556     -40589.818      12217.858      15116.441      15283.18       6231.3668      84.505648     -62.924826      40.373791    
       300   906.13944     -40592.903      12345.767      15291.955      15253.479      6238.3428      105.89364     -121.64655      66.740927    
Loop time of 4.51827 on 48 procs for 300 steps with 13500 atoms

Performance: 5.737 ns/day, 4.184 hours/ns, 66.397 timesteps/s
99.6% CPU use with 48 MPI tasks x no OpenMP threads

MPI task timing breakdown:
Section |  min time  |  avg time  |  max time  |%varavg| %total
---------------------------------------------------------------
Pair    | 3.7793     | 4.0513     | 4.3367     |   7.6 | 89.67
Neigh   | 0.01815    | 0.01962    | 0.021075   |   0.7 |  0.43
Comm    | 0.076757   | 0.36896    | 0.65073    |  25.3 |  8.17
Output  | 0.00013844 | 0.0001484  | 0.00018112 |   0.0 |  0.00
Modify  | 0.005329   | 0.0077957  | 0.016709   |   3.7 |  0.17
Other   |            | 0.07041    |            |       |  1.56

Nlocal:         281.25 ave         299 max         267 min
Histogram: 8 8 4 2 1 3 8 8 5 1
Nghost:        1256.19 ave        1285 max        1224 min
Histogram: 4 9 8 3 0 0 1 4 8 11
Neighs:              0 ave           0 max           0 min
Histogram: 48 0 0 0 0 0 0 0 0 0
FullNghs:      14254.1 ave       15132 max       13486 min
Histogram: 7 9 2 4 0 5 5 8 6 2

Total # of neighbors = 684196
Ave neighs/atom = 50.681185
Neighbor list builds = 10
Dangerous builds = 0

# Obtain new stress tensor

variable pxx1 equal f_avp[1]
variable pyy1 equal f_avp[2]
variable pzz1 equal f_avp[3]
variable pxy1 equal f_avp[4]
variable pxz1 equal f_avp[5]
variable pyz1 equal f_avp[6]

# Compute elastic constant from pressure tensor

variable C1pos equal ${d1}
variable C1pos equal 26.9851230441225
variable C2pos equal ${d2}
variable C2pos equal 24.440146023185
variable C3pos equal ${d3}
variable C3pos equal 60.9860409605464
variable C4pos equal ${d4}
variable C4pos equal -0.916278441665116
variable C5pos equal ${d5}
variable C5pos equal 1.0688430958238
variable C6pos equal ${d6}
variable C6pos equal -0.885001741775711

# Combine positive and negative

variable C1${dir} equal 0.5*(${C1neg}+${C1pos})
variable C13 equal 0.5*(${C1neg}+${C1pos})
variable C13 equal 0.5*(31.893284353693+${C1pos})
variable C13 equal 0.5*(31.893284353693+26.9851230441225)
variable C2${dir} equal 0.5*(${C2neg}+${C2pos})
variable C23 equal 0.5*(${C2neg}+${C2pos})
variable C23 equal 0.5*(35.4456242362435+${C2pos})
variable C23 equal 0.5*(35.4456242362435+24.440146023185)
variable C3${dir} equal 0.5*(${C3neg}+${C3pos})
variable C33 equal 0.5*(${C3neg}+${C3pos})
variable C33 equal 0.5*(70.0109779407375+${C3pos})
variable C33 equal 0.5*(70.0109779407375+60.9860409605464)
variable C4${dir} equal 0.5*(${C4neg}+${C4pos})
variable C43 equal 0.5*(${C4neg}+${C4pos})
variable C43 equal 0.5*(0.366687040154341+${C4pos})
variable C43 equal 0.5*(0.366687040154341+-0.916278441665116)
variable C5${dir} equal 0.5*(${C5neg}+${C5pos})
variable C53 equal 0.5*(${C5neg}+${C5pos})
variable C53 equal 0.5*(0.59839968061429+${C5pos})
variable C53 equal 0.5*(0.59839968061429+1.0688430958238)
variable C6${dir} equal 0.5*(${C6neg}+${C6pos})
variable C63 equal 0.5*(${C6neg}+${C6pos})
variable C63 equal 0.5*(-0.590499665963044+${C6pos})
variable C63 equal 0.5*(-0.590499665963044+-0.885001741775711)

# Delete dir to make sure it is not reused

variable dir delete

# uyz Perturbation

variable dir equal 4
include displace.mod
# NOTE: This script should not need to be
# modified. See in.elastic for more info.
#
# Find which reference length to use

if "${dir} == 1" then    "variable len0 equal ${lx0}"
if "${dir} == 2" then    "variable len0 equal ${ly0}"
if "${dir} == 3" then    "variable len0 equal ${lz0}"
if "${dir} == 4" then    "variable len0 equal ${lz0}"
variable len0 equal ${lz0}
variable len0 equal 87.316633332
if "${dir} == 5" then    "variable len0 equal ${lz0}"
if "${dir} == 6" then    "variable len0 equal ${ly0}"

# Reset box and simulation parameters

clear
box tilt large
read_restart restart.equil
Reading restart file ...
  restart file = 24 Mar 2022, LAMMPS = 24 Mar 2022
  restoring atom style atomic from restart
  triclinic box = (0 0 0) to (69.064169 59.811324 87.316633) with tilt (-34.532084 0 0)
  4 by 3 by 4 MPI processor grid
  pair style nep stores no restart info
  13500 atoms
  read_restart CPU = 0.003 seconds
include potential.mod
# NOTE: This script can be modified for different pair styles
# See in.elastic for more info.

# we must undefine any fix ave/* fix before using reset_timestep
if "$(is_defined(fix,avp))" then "unfix avp"
reset_timestep 0

# MTP potential
pair_style  nep
pair_coeff  * * nep_y2026_m09_d04_h13_m17_s19_generation300000.txt Mg Bi


# Setup neighbor style
neighbor 1.0 nsq
neigh_modify once no every 1 delay 0 check yes

# Setup output

fix avp all ave/time  ${nevery} ${nrepeat} ${nfreq} c_thermo_press mode vector
fix avp all ave/time  10 ${nrepeat} ${nfreq} c_thermo_press mode vector
fix avp all ave/time  10 10 ${nfreq} c_thermo_press mode vector
fix avp all ave/time  10 10 100 c_thermo_press mode vector
thermo		${nthermo}
thermo		100
thermo_style custom step temp pe press f_avp[1] f_avp[2] f_avp[3] f_avp[4] f_avp[5] f_avp[6]
thermo_modify norm no

# Setup MD

timestep ${timestep}
timestep 0.001
fix 4 all nve
if "${thermostat} == 1" then    "fix 5 all langevin ${temp} ${temp} ${tdamp} ${seed}"
fix 5 all langevin ${temp} ${temp} ${tdamp} ${seed}
fix 5 all langevin 900 ${temp} ${tdamp} ${seed}
fix 5 all langevin 900 900 ${tdamp} ${seed}
fix 5 all langevin 900 900 0.01 ${seed}
fix 5 all langevin 900 900 0.01 123457



# Negative deformation

variable delta equal -${up}*${len0}
variable delta equal -0.02*${len0}
variable delta equal -0.02*87.316633332
variable deltaxy equal -${up}*xy
variable deltaxy equal -0.02*xy
variable deltaxz equal -${up}*xz
variable deltaxz equal -0.02*xz
variable deltayz equal -${up}*yz
variable deltayz equal -0.02*yz
if "${dir} == 1" then    "change_box all x delta 0 ${delta} xy delta ${deltaxy} xz delta ${deltaxz} remap units box"
if "${dir} == 2" then    "change_box all y delta 0 ${delta} yz delta ${deltayz} remap units box"
if "${dir} == 3" then    "change_box all z delta 0 ${delta} remap units box"
if "${dir} == 4" then    "change_box all yz delta ${delta} remap units box"
change_box all yz delta ${delta} remap units box
change_box all yz delta -1.74633266664 remap units box
Changing box ...
  triclinic box = (0 0 0) to (69.064169 59.811324 87.316633) with tilt (-34.532084 0 -1.7463327)
if "${dir} == 5" then    "change_box all xz delta ${delta} remap units box"
if "${dir} == 6" then    "change_box all xy delta ${delta} remap units box"

# Run MD

run ${nequil}
run 1000
Neighbor list info ...
  update every 1 steps, delay 0 steps, check yes
  max neighbors/atom: 2000, page size: 100000
  master list distance cutoff = 7
  ghost atom cutoff = 7
  1 neighbor lists, perpetual/occasional/extra = 1 0 0
  (1) pair nep, perpetual
      attributes: full, newton on
      pair build: full/nsq
      stencil: none
      bin: none
Per MPI rank memory allocation (min/avg/max) = 3.065 | 3.068 | 3.079 Mbytes
   Step          Temp          PotEng         Press         f_avp[1]       f_avp[2]       f_avp[3]       f_avp[4]       f_avp[5]       f_avp[6]   
         0   905.524       -40685.188      19890.857      0              0              0              0              0              0            
       100   907.27122     -40688.316      19896.128      20421.295      20667.158      18301.018     -50.982145      81.095192      3839.2334    
       200   893.11488     -40675.71       19855.894      20909.226      20279.819      18342.678      31.931599      13.51153       3518.5913    
       300   909.16881     -40674          19831.086      20752.971      20285.684      18670.145      98.676902      85.162941      3506.8823    
       400   904.65207     -40653.521      19870.115      20711.88       20245.881      18538.85       159.66717      13.940856      3420.7728    
       500   912.78431     -40647.019      19896.897      20715.189      20380.585      18763.842      226.6999       114.52542      3389.6757    
       600   916.60321     -40635.218      20103.052      21155.802      20410.329      18527.497     -98.664556      261.84493      3500.5908    
       700   888.23522     -40630.084      20017.446      20929.173      20633.104      18594.104      32.104043      224.56662      3550.9411    
       800   904.78897     -40629.868      20045.97       21398.201      20036.651      18685.229      212.47542      19.603511      3193.0665    
       900   908.98638     -40601.988      20447.536      21277.65       20458.555      18937.966      422.43867     -292.3583       3125.7251    
      1000   896.22396     -40614.592      20127.168      21181.792      20545.041      19049.406      228.78525     -244.41458      3094.525     
Loop time of 15.0281 on 48 procs for 1000 steps with 13500 atoms

Performance: 5.749 ns/day, 4.174 hours/ns, 66.542 timesteps/s
99.6% CPU use with 48 MPI tasks x no OpenMP threads

MPI task timing breakdown:
Section |  min time  |  avg time  |  max time  |%varavg| %total
---------------------------------------------------------------
Pair    | 12.832     | 13.684     | 14.472     |  13.9 | 91.05
Neigh   | 0.058739   | 0.063397   | 0.067587   |   1.3 |  0.42
Comm    | 0.3377     | 1.0818     | 1.9463     |  46.3 |  7.20
Output  | 0.00042357 | 0.00045749 | 0.00058051 |   0.0 |  0.00
Modify  | 0.018131   | 0.035905   | 0.058541   |   6.8 |  0.24
Other   |            | 0.1629     |            |       |  1.08

Nlocal:         281.25 ave         298 max         267 min
Histogram: 10 6 4 4 1 3 4 6 6 4
Nghost:           1264 ave        1297 max        1225 min
Histogram: 1 5 11 7 0 0 0 9 8 7
Neighs:              0 ave           0 max           0 min
Histogram: 48 0 0 0 0 0 0 0 0 0
FullNghs:      14506.5 ave       15339 max       13714 min
Histogram: 7 7 6 3 2 2 3 5 6 7

Total # of neighbors = 696314
Ave neighs/atom = 51.578815
Neighbor list builds = 32
Dangerous builds = 0
include potential.mod
# NOTE: This script can be modified for different pair styles
# See in.elastic for more info.

# we must undefine any fix ave/* fix before using reset_timestep
if "$(is_defined(fix,avp))" then "unfix avp"
unfix avp
reset_timestep 0

# MTP potential
pair_style  nep
pair_coeff  * * nep_y2026_m09_d04_h13_m17_s19_generation300000.txt Mg Bi


# Setup neighbor style
neighbor 1.0 nsq
neigh_modify once no every 1 delay 0 check yes

# Setup output

fix avp all ave/time  ${nevery} ${nrepeat} ${nfreq} c_thermo_press mode vector
fix avp all ave/time  10 ${nrepeat} ${nfreq} c_thermo_press mode vector
fix avp all ave/time  10 10 ${nfreq} c_thermo_press mode vector
fix avp all ave/time  10 10 100 c_thermo_press mode vector
thermo		${nthermo}
thermo		100
thermo_style custom step temp pe press f_avp[1] f_avp[2] f_avp[3] f_avp[4] f_avp[5] f_avp[6]
WARNING: New thermo_style command, previous thermo_modify settings will be lost (../output.cpp:896)
thermo_modify norm no

# Setup MD

timestep ${timestep}
timestep 0.001
fix 4 all nve
if "${thermostat} == 1" then    "fix 5 all langevin ${temp} ${temp} ${tdamp} ${seed}"
fix 5 all langevin ${temp} ${temp} ${tdamp} ${seed}
fix 5 all langevin 900 ${temp} ${tdamp} ${seed}
fix 5 all langevin 900 900 ${tdamp} ${seed}
fix 5 all langevin 900 900 0.01 ${seed}
fix 5 all langevin 900 900 0.01 123457


run ${nrun}
run 300
Per MPI rank memory allocation (min/avg/max) = 3.066 | 3.071 | 3.081 Mbytes
   Step          Temp          PotEng         Press         f_avp[1]       f_avp[2]       f_avp[3]       f_avp[4]       f_avp[5]       f_avp[6]   
         0   896.22396     -40614.592      20127.168      0              0              0              0              0              0            
       100   889.97519     -40594.739      20186.685      20963.451      20205.39       18937.306     -139.16653     -9.2686666      3054.2477    
       200   887.5541      -40585.847      20500.175      21447.01       20620.299      19379.985     -266.99014      119.22742      3159.6789    
       300   899.60195     -40582.093      20574.267      21521.827      20869.004      19084.024     -320.05267      168.3232       3096.2518    
Loop time of 4.57141 on 48 procs for 300 steps with 13500 atoms

Performance: 5.670 ns/day, 4.233 hours/ns, 65.625 timesteps/s
99.6% CPU use with 48 MPI tasks x no OpenMP threads

MPI task timing breakdown:
Section |  min time  |  avg time  |  max time  |%varavg| %total
---------------------------------------------------------------
Pair    | 3.8614     | 4.1101     | 4.4269     |   7.7 | 89.91
Neigh   | 0.018371   | 0.019818   | 0.021446   |   0.7 |  0.43
Comm    | 0.032867   | 0.34018    | 0.607      |  24.4 |  7.44
Output  | 0.00010768 | 0.00012162 | 0.00016165 |   0.0 |  0.00
Modify  | 0.029313   | 0.057222   | 0.081591   |   7.1 |  1.25
Other   |            | 0.04399    |            |       |  0.96

Nlocal:         281.25 ave         300 max         264 min
Histogram: 2 10 6 5 0 4 7 7 3 4
Nghost:        1266.62 ave        1294 max        1241 min
Histogram: 12 3 6 3 0 1 4 4 7 8
Neighs:              0 ave           0 max           0 min
Histogram: 48 0 0 0 0 0 0 0 0 0
FullNghs:      14508.8 ave       15499 max       13602 min
Histogram: 1 9 10 2 1 4 6 7 5 3

Total # of neighbors = 696420
Ave neighs/atom = 51.586667
Neighbor list builds = 10
Dangerous builds = 0

# Obtain new stress tensor

variable pxx1 equal f_avp[1]
variable pyy1 equal f_avp[2]
variable pzz1 equal f_avp[3]
variable pxy1 equal f_avp[4]
variable pxz1 equal f_avp[5]
variable pyz1 equal f_avp[6]

# Compute elastic constant from pressure tensor

variable C1neg equal ${d1}
variable C1neg equal 4.16423627491649
variable C2neg equal ${d2}
variable C2neg equal 3.637477260425
variable C3neg equal ${d3}
variable C3neg equal 3.24236346142399
variable C4neg equal ${d4}
variable C4neg equal 16.0638328765982
variable C5neg equal ${d5}
variable C5neg equal 0.381005620263226
variable C6neg equal ${d6}
variable C6neg equal -1.24472981226655

# Reset box and simulation parameters

clear
box tilt large
read_restart restart.equil
Reading restart file ...
  restart file = 24 Mar 2022, LAMMPS = 24 Mar 2022
  restoring atom style atomic from restart
  triclinic box = (0 0 0) to (69.064169 59.811324 87.316633) with tilt (-34.532084 0 0)
  4 by 3 by 4 MPI processor grid
  pair style nep stores no restart info
  13500 atoms
  read_restart CPU = 0.103 seconds
include potential.mod
# NOTE: This script can be modified for different pair styles
# See in.elastic for more info.

# we must undefine any fix ave/* fix before using reset_timestep
if "$(is_defined(fix,avp))" then "unfix avp"
reset_timestep 0

# MTP potential
pair_style  nep
pair_coeff  * * nep_y2026_m09_d04_h13_m17_s19_generation300000.txt Mg Bi


# Setup neighbor style
neighbor 1.0 nsq
neigh_modify once no every 1 delay 0 check yes

# Setup output

fix avp all ave/time  ${nevery} ${nrepeat} ${nfreq} c_thermo_press mode vector
fix avp all ave/time  10 ${nrepeat} ${nfreq} c_thermo_press mode vector
fix avp all ave/time  10 10 ${nfreq} c_thermo_press mode vector
fix avp all ave/time  10 10 100 c_thermo_press mode vector
thermo		${nthermo}
thermo		100
thermo_style custom step temp pe press f_avp[1] f_avp[2] f_avp[3] f_avp[4] f_avp[5] f_avp[6]
thermo_modify norm no

# Setup MD

timestep ${timestep}
timestep 0.001
fix 4 all nve
if "${thermostat} == 1" then    "fix 5 all langevin ${temp} ${temp} ${tdamp} ${seed}"
fix 5 all langevin ${temp} ${temp} ${tdamp} ${seed}
fix 5 all langevin 900 ${temp} ${tdamp} ${seed}
fix 5 all langevin 900 900 ${tdamp} ${seed}
fix 5 all langevin 900 900 0.01 ${seed}
fix 5 all langevin 900 900 0.01 123457



# Positive deformation

variable delta equal ${up}*${len0}
variable delta equal 0.02*${len0}
variable delta equal 0.02*87.316633332
variable deltaxy equal ${up}*xy
variable deltaxy equal 0.02*xy
variable deltaxz equal ${up}*xz
variable deltaxz equal 0.02*xz
variable deltayz equal ${up}*yz
variable deltayz equal 0.02*yz
if "${dir} == 1" then    "change_box all x delta 0 ${delta} xy delta ${deltaxy} xz delta ${deltaxz} remap units box"
if "${dir} == 2" then    "change_box all y delta 0 ${delta} yz delta ${deltayz} remap units box"
if "${dir} == 3" then    "change_box all z delta 0 ${delta} remap units box"
if "${dir} == 4" then    "change_box all yz delta ${delta} remap units box"
change_box all yz delta ${delta} remap units box
change_box all yz delta 1.74633266664 remap units box
Changing box ...
  triclinic box = (0 0 0) to (69.064169 59.811324 87.316633) with tilt (-34.532084 0 1.7463327)
if "${dir} == 5" then    "change_box all xz delta ${delta} remap units box"
if "${dir} == 6" then    "change_box all xy delta ${delta} remap units box"

# Run MD

run ${nequil}
run 1000
Neighbor list info ...
  update every 1 steps, delay 0 steps, check yes
  max neighbors/atom: 2000, page size: 100000
  master list distance cutoff = 7
  ghost atom cutoff = 7
  1 neighbor lists, perpetual/occasional/extra = 1 0 0
  (1) pair nep, perpetual
      attributes: full, newton on
      pair build: full/nsq
      stencil: none
      bin: none
Per MPI rank memory allocation (min/avg/max) = 3.065 | 3.068 | 3.079 Mbytes
   Step          Temp          PotEng         Press         f_avp[1]       f_avp[2]       f_avp[3]       f_avp[4]       f_avp[5]       f_avp[6]   
         0   905.524       -40684.665      19862.651      0              0              0              0              0              0            
       100   906.49877     -40685.952      19819.492      21093.409      19933.56       18320.709     -102.23451      165.07611     -4306.9914    
       200   902.77952     -40677.262      19765.83       20546.81       20598.801      18163.881     -175.13127      155.74167     -3621.1337    
       300   894.30227     -40659.128      19916.295      20503.383      20661.769      18271.558      11.625937      41.227245     -3499.9693    
       400   888.09705     -40657.662      19956.803      20280.899      20989.028      18583.654     -157.50728      301.40048     -3335.7621    
       500   907.45412     -40645.257      20117.372      20673.081      21041.851      18889.641      123.31039      196.9837      -3520.6784    
       600   900.09425     -40635.676      19976.808      20737.691      20736.286      18547.371     -74.013163      223.71548     -3549.6061    
       700   903.57069     -40630.567      20076.947      20693.519      20709.231      18516.043     -271.9862       336.10066     -3451.1343    
       800   894.74558     -40620.084      19955.254      20265.797      21314.7        18721.823     -48.505129      162.42931     -3124.847     
       900   905.31119     -40629.633      19953.813      20319.121      21067.856      18412.26      -26.751536      70.359877     -3183.9494    
      1000   900.23081     -40618.496      19957.564      19970.646      21335.335      18605.356      158.23311      138.06912     -2862.5795    
Loop time of 15.0972 on 48 procs for 1000 steps with 13500 atoms

Performance: 5.723 ns/day, 4.194 hours/ns, 66.237 timesteps/s
99.6% CPU use with 48 MPI tasks x no OpenMP threads

MPI task timing breakdown:
Section |  min time  |  avg time  |  max time  |%varavg| %total
---------------------------------------------------------------
Pair    | 12.821     | 13.673     | 14.486     |  14.1 | 90.57
Neigh   | 0.058533   | 0.063465   | 0.067831   |   1.3 |  0.42
Comm    | 0.29571    | 1.1394     | 1.9545     |  48.2 |  7.55
Output  | 0.00043485 | 0.00046857 | 0.00074528 |   0.0 |  0.00
Modify  | 0.026083   | 0.054782   | 0.10131    |  10.3 |  0.36
Other   |            | 0.1656     |            |       |  1.10

Nlocal:         281.25 ave         297 max         261 min
Histogram: 2 1 8 9 4 0 2 9 9 4
Nghost:        1266.52 ave        1296 max        1234 min
Histogram: 1 10 9 2 2 1 2 6 6 9
Neighs:              0 ave           0 max           0 min
Histogram: 48 0 0 0 0 0 0 0 0 0
FullNghs:      14493.3 ave       15291 max       13442 min
Histogram: 2 1 9 9 3 0 1 9 4 10

Total # of neighbors = 695678
Ave neighs/atom = 51.531704
Neighbor list builds = 32
Dangerous builds = 0
include potential.mod
# NOTE: This script can be modified for different pair styles
# See in.elastic for more info.

# we must undefine any fix ave/* fix before using reset_timestep
if "$(is_defined(fix,avp))" then "unfix avp"
unfix avp
reset_timestep 0

# MTP potential
pair_style  nep
pair_coeff  * * nep_y2026_m09_d04_h13_m17_s19_generation300000.txt Mg Bi


# Setup neighbor style
neighbor 1.0 nsq
neigh_modify once no every 1 delay 0 check yes

# Setup output

fix avp all ave/time  ${nevery} ${nrepeat} ${nfreq} c_thermo_press mode vector
fix avp all ave/time  10 ${nrepeat} ${nfreq} c_thermo_press mode vector
fix avp all ave/time  10 10 ${nfreq} c_thermo_press mode vector
fix avp all ave/time  10 10 100 c_thermo_press mode vector
thermo		${nthermo}
thermo		100
thermo_style custom step temp pe press f_avp[1] f_avp[2] f_avp[3] f_avp[4] f_avp[5] f_avp[6]
WARNING: New thermo_style command, previous thermo_modify settings will be lost (../output.cpp:896)
thermo_modify norm no

# Setup MD

timestep ${timestep}
timestep 0.001
fix 4 all nve
if "${thermostat} == 1" then    "fix 5 all langevin ${temp} ${temp} ${tdamp} ${seed}"
fix 5 all langevin ${temp} ${temp} ${tdamp} ${seed}
fix 5 all langevin 900 ${temp} ${tdamp} ${seed}
fix 5 all langevin 900 900 ${tdamp} ${seed}
fix 5 all langevin 900 900 0.01 ${seed}
fix 5 all langevin 900 900 0.01 123457


run ${nrun}
run 300
Per MPI rank memory allocation (min/avg/max) = 3.066 | 3.072 | 3.081 Mbytes
   Step          Temp          PotEng         Press         f_avp[1]       f_avp[2]       f_avp[3]       f_avp[4]       f_avp[5]       f_avp[6]   
         0   900.23081     -40618.496      19957.564      0              0              0              0              0              0            
       100   898.59897     -40618.539      19962.91       20086.356      20944.996      18608.69      -224.34386      261.55137     -2876.9905    
       200   900.67248     -40607.504      20100.585      20467.012      20884.618      18840.552      21.777921      127.47603     -3038.3194    
       300   898.89348     -40617.872      19867.037      20181.983      20942.682      18813.628      376.87378     -203.13777     -3004.7508    
Loop time of 4.51774 on 48 procs for 300 steps with 13500 atoms

Performance: 5.737 ns/day, 4.183 hours/ns, 66.405 timesteps/s
99.6% CPU use with 48 MPI tasks x no OpenMP threads

MPI task timing breakdown:
Section |  min time  |  avg time  |  max time  |%varavg| %total
---------------------------------------------------------------
Pair    | 3.8198     | 4.105      | 4.3451     |   7.8 | 90.86
Neigh   | 0.018279   | 0.019786   | 0.021064   |   0.7 |  0.44
Comm    | 0.087324   | 0.33223    | 0.59334    |  26.1 |  7.35
Output  | 0.00015147 | 0.00015773 | 0.0001984  |   0.0 |  0.00
Modify  | 0.0053929  | 0.0072453  | 0.011891   |   2.2 |  0.16
Other   |            | 0.05334    |            |       |  1.18

Nlocal:         281.25 ave         299 max         263 min
Histogram: 1 10 5 4 1 4 6 10 5 2
Nghost:        1265.04 ave        1294 max        1232 min
Histogram: 2 7 6 7 2 2 2 5 8 7
Neighs:              0 ave           0 max           0 min
Histogram: 48 0 0 0 0 0 0 0 0 0
FullNghs:      14500.8 ave       15394 max       13485 min
Histogram: 1 7 6 6 2 3 2 10 7 4

Total # of neighbors = 696036
Ave neighs/atom = 51.558222
Neighbor list builds = 10
Dangerous builds = 0

# Obtain new stress tensor

variable pxx1 equal f_avp[1]
variable pyy1 equal f_avp[2]
variable pzz1 equal f_avp[3]
variable pxy1 equal f_avp[4]
variable pxz1 equal f_avp[5]
variable pyz1 equal f_avp[6]

# Compute elastic constant from pressure tensor

variable C1pos equal ${d1}
variable C1pos equal 2.53498231725851
variable C2pos equal ${d2}
variable C2pos equal -4.00586915818149
variable C3pos equal ${d3}
variable C3pos equal -1.89038528144749
variable C4pos equal ${d4}
variable C4pos equal 14.4411803581558
variable C5pos equal ${d5}
variable C5pos equal 1.47629923592923
variable C6pos equal ${d6}
variable C6pos equal -2.23990247944438

# Combine positive and negative

variable C1${dir} equal 0.5*(${C1neg}+${C1pos})
variable C14 equal 0.5*(${C1neg}+${C1pos})
variable C14 equal 0.5*(4.16423627491649+${C1pos})
variable C14 equal 0.5*(4.16423627491649+2.53498231725851)
variable C2${dir} equal 0.5*(${C2neg}+${C2pos})
variable C24 equal 0.5*(${C2neg}+${C2pos})
variable C24 equal 0.5*(3.637477260425+${C2pos})
variable C24 equal 0.5*(3.637477260425+-4.00586915818149)
variable C3${dir} equal 0.5*(${C3neg}+${C3pos})
variable C34 equal 0.5*(${C3neg}+${C3pos})
variable C34 equal 0.5*(3.24236346142399+${C3pos})
variable C34 equal 0.5*(3.24236346142399+-1.89038528144749)
variable C4${dir} equal 0.5*(${C4neg}+${C4pos})
variable C44 equal 0.5*(${C4neg}+${C4pos})
variable C44 equal 0.5*(16.0638328765982+${C4pos})
variable C44 equal 0.5*(16.0638328765982+14.4411803581558)
variable C5${dir} equal 0.5*(${C5neg}+${C5pos})
variable C54 equal 0.5*(${C5neg}+${C5pos})
variable C54 equal 0.5*(0.381005620263226+${C5pos})
variable C54 equal 0.5*(0.381005620263226+1.47629923592923)
variable C6${dir} equal 0.5*(${C6neg}+${C6pos})
variable C64 equal 0.5*(${C6neg}+${C6pos})
variable C64 equal 0.5*(-1.24472981226655+${C6pos})
variable C64 equal 0.5*(-1.24472981226655+-2.23990247944438)

# Delete dir to make sure it is not reused

variable dir delete

# uxz Perturbation

variable dir equal 5
include displace.mod
# NOTE: This script should not need to be
# modified. See in.elastic for more info.
#
# Find which reference length to use

if "${dir} == 1" then    "variable len0 equal ${lx0}"
if "${dir} == 2" then    "variable len0 equal ${ly0}"
if "${dir} == 3" then    "variable len0 equal ${lz0}"
if "${dir} == 4" then    "variable len0 equal ${lz0}"
if "${dir} == 5" then    "variable len0 equal ${lz0}"
variable len0 equal ${lz0}
variable len0 equal 87.316633332
if "${dir} == 6" then    "variable len0 equal ${ly0}"

# Reset box and simulation parameters

clear
box tilt large
read_restart restart.equil
Reading restart file ...
  restart file = 24 Mar 2022, LAMMPS = 24 Mar 2022
  restoring atom style atomic from restart
  triclinic box = (0 0 0) to (69.064169 59.811324 87.316633) with tilt (-34.532084 0 0)
  4 by 3 by 4 MPI processor grid
  pair style nep stores no restart info
  13500 atoms
  read_restart CPU = 0.099 seconds
include potential.mod
# NOTE: This script can be modified for different pair styles
# See in.elastic for more info.

# we must undefine any fix ave/* fix before using reset_timestep
if "$(is_defined(fix,avp))" then "unfix avp"
reset_timestep 0

# MTP potential
pair_style  nep
pair_coeff  * * nep_y2026_m09_d04_h13_m17_s19_generation300000.txt Mg Bi


# Setup neighbor style
neighbor 1.0 nsq
neigh_modify once no every 1 delay 0 check yes

# Setup output

fix avp all ave/time  ${nevery} ${nrepeat} ${nfreq} c_thermo_press mode vector
fix avp all ave/time  10 ${nrepeat} ${nfreq} c_thermo_press mode vector
fix avp all ave/time  10 10 ${nfreq} c_thermo_press mode vector
fix avp all ave/time  10 10 100 c_thermo_press mode vector
thermo		${nthermo}
thermo		100
thermo_style custom step temp pe press f_avp[1] f_avp[2] f_avp[3] f_avp[4] f_avp[5] f_avp[6]
thermo_modify norm no

# Setup MD

timestep ${timestep}
timestep 0.001
fix 4 all nve
if "${thermostat} == 1" then    "fix 5 all langevin ${temp} ${temp} ${tdamp} ${seed}"
fix 5 all langevin ${temp} ${temp} ${tdamp} ${seed}
fix 5 all langevin 900 ${temp} ${tdamp} ${seed}
fix 5 all langevin 900 900 ${tdamp} ${seed}
fix 5 all langevin 900 900 0.01 ${seed}
fix 5 all langevin 900 900 0.01 123457



# Negative deformation

variable delta equal -${up}*${len0}
variable delta equal -0.02*${len0}
variable delta equal -0.02*87.316633332
variable deltaxy equal -${up}*xy
variable deltaxy equal -0.02*xy
variable deltaxz equal -${up}*xz
variable deltaxz equal -0.02*xz
variable deltayz equal -${up}*yz
variable deltayz equal -0.02*yz
if "${dir} == 1" then    "change_box all x delta 0 ${delta} xy delta ${deltaxy} xz delta ${deltaxz} remap units box"
if "${dir} == 2" then    "change_box all y delta 0 ${delta} yz delta ${deltayz} remap units box"
if "${dir} == 3" then    "change_box all z delta 0 ${delta} remap units box"
if "${dir} == 4" then    "change_box all yz delta ${delta} remap units box"
if "${dir} == 5" then    "change_box all xz delta ${delta} remap units box"
change_box all xz delta ${delta} remap units box
change_box all xz delta -1.74633266664 remap units box
Changing box ...
  triclinic box = (0 0 0) to (69.064169 59.811324 87.316633) with tilt (-34.532084 -1.7463327 0)
if "${dir} == 6" then    "change_box all xy delta ${delta} remap units box"

# Run MD

run ${nequil}
run 1000
Neighbor list info ...
  update every 1 steps, delay 0 steps, check yes
  max neighbors/atom: 2000, page size: 100000
  master list distance cutoff = 7
  ghost atom cutoff = 7
  1 neighbor lists, perpetual/occasional/extra = 1 0 0
  (1) pair nep, perpetual
      attributes: full, newton on
      pair build: full/nsq
      stencil: none
      bin: none
Per MPI rank memory allocation (min/avg/max) = 3.065 | 3.068 | 3.079 Mbytes
   Step          Temp          PotEng         Press         f_avp[1]       f_avp[2]       f_avp[3]       f_avp[4]       f_avp[5]       f_avp[6]   
         0   905.524       -40685.345      19868.884      0              0              0              0              0              0            
       100   906.61609     -40680.966      19906.666      20689.058      20390.769      18304.493     -568.27047      4271.5577     -239.99101    
       200   889.02451     -40660.783      19894.33       20726.584      20514.875      18313.333      261.41131      3694.4679     -59.135739    
       300   898.1903      -40659.936      19853.726      20376.448      20534.752      18781.572      126.92925      3676.5164      27.397467    
       400   907.00665     -40656.239      19908.259      20752.846      20526.096      18810.399      276.53978      3397.3554     -133.06137    
       500   909.3285      -40647.477      20041.843      20769.322      20417.098      18871.772      422.63816      3301.8915      24.560851    
       600   897.83723     -40653.604      19868.216      20654.248      20760.056      18742.843      461.94836      3208.6819      132.789      
       700   897.30537     -40636.946      19996.454      20336.741      20731.505      18773.548      561.25949      3053.3684      157.12093    
       800   899.84088     -40631.516      20026.697      20678.603      20736.708      18850.467      515.12328      3043.8703     -39.087909    
       900   911.41368     -40623.488      20077.328      20614.743      20773.078      18656.723      461.04016      2966.5227     -5.5315075    
      1000   897.98094     -40621.296      19924.841      20693.697      20548.596      18753.339      135.8116       3409.3397     -69.694163    
Loop time of 15.2383 on 48 procs for 1000 steps with 13500 atoms

Performance: 5.670 ns/day, 4.233 hours/ns, 65.624 timesteps/s
99.6% CPU use with 48 MPI tasks x no OpenMP threads

MPI task timing breakdown:
Section |  min time  |  avg time  |  max time  |%varavg| %total
---------------------------------------------------------------
Pair    | 12.865     | 13.679     | 14.417     |  13.7 | 89.77
Neigh   | 0.059218   | 0.0634     | 0.067687   |   1.3 |  0.42
Comm    | 0.46302    | 1.2315     | 2.0706     |  45.2 |  8.08
Output  | 0.00040733 | 0.00044496 | 0.00071413 |   0.0 |  0.00
Modify  | 0.018223   | 0.03967    | 0.083445   |   9.9 |  0.26
Other   |            | 0.2242     |            |       |  1.47

Nlocal:         281.25 ave         299 max         266 min
Histogram: 5 10 3 6 0 2 9 7 5 1
Nghost:        1262.92 ave        1296 max        1235 min
Histogram: 8 8 8 0 0 1 4 12 5 2
Neighs:              0 ave           0 max           0 min
Histogram: 48 0 0 0 0 0 0 0 0 0
FullNghs:      14489.2 ave       15370 max       13734 min
Histogram: 8 8 5 3 0 4 5 3 10 2

Total # of neighbors = 695480
Ave neighs/atom = 51.517037
Neighbor list builds = 32
Dangerous builds = 0
include potential.mod
# NOTE: This script can be modified for different pair styles
# See in.elastic for more info.

# we must undefine any fix ave/* fix before using reset_timestep
if "$(is_defined(fix,avp))" then "unfix avp"
unfix avp
reset_timestep 0

# MTP potential
pair_style  nep
pair_coeff  * * nep_y2026_m09_d04_h13_m17_s19_generation300000.txt Mg Bi


# Setup neighbor style
neighbor 1.0 nsq
neigh_modify once no every 1 delay 0 check yes

# Setup output

fix avp all ave/time  ${nevery} ${nrepeat} ${nfreq} c_thermo_press mode vector
fix avp all ave/time  10 ${nrepeat} ${nfreq} c_thermo_press mode vector
fix avp all ave/time  10 10 ${nfreq} c_thermo_press mode vector
fix avp all ave/time  10 10 100 c_thermo_press mode vector
thermo		${nthermo}
thermo		100
thermo_style custom step temp pe press f_avp[1] f_avp[2] f_avp[3] f_avp[4] f_avp[5] f_avp[6]
WARNING: New thermo_style command, previous thermo_modify settings will be lost (../output.cpp:896)
thermo_modify norm no

# Setup MD

timestep ${timestep}
timestep 0.001
fix 4 all nve
if "${thermostat} == 1" then    "fix 5 all langevin ${temp} ${temp} ${tdamp} ${seed}"
fix 5 all langevin ${temp} ${temp} ${tdamp} ${seed}
fix 5 all langevin 900 ${temp} ${tdamp} ${seed}
fix 5 all langevin 900 900 ${tdamp} ${seed}
fix 5 all langevin 900 900 0.01 ${seed}
fix 5 all langevin 900 900 0.01 123457


run ${nrun}
run 300
Per MPI rank memory allocation (min/avg/max) = 3.066 | 3.071 | 3.081 Mbytes
   Step          Temp          PotEng         Press         f_avp[1]       f_avp[2]       f_avp[3]       f_avp[4]       f_avp[5]       f_avp[6]   
         0   897.98094     -40621.296      19924.841      0              0              0              0              0              0            
       100   899.26145     -40600.1        20175.744      20495.572      20836.659      18766.007      32.450255      3399.2261      234.35298    
       200   899.06765     -40621.137      19884.099      20807.767      20562.353      18735.622      59.589127      3185.1465     -133.89576    
       300   902.76969     -40605.861      20167.309      20720.571      20390.662      18882.048      378.74082      2932.3978     -155.42775    
Loop time of 4.56792 on 48 procs for 300 steps with 13500 atoms

Performance: 5.674 ns/day, 4.230 hours/ns, 65.675 timesteps/s
99.6% CPU use with 48 MPI tasks x no OpenMP threads

MPI task timing breakdown:
Section |  min time  |  avg time  |  max time  |%varavg| %total
---------------------------------------------------------------
Pair    | 3.8344     | 4.1059     | 4.3773     |   7.6 | 89.89
Neigh   | 0.016348   | 0.017791   | 0.019045   |   0.7 |  0.39
Comm    | 0.07027    | 0.3473     | 0.64435    |  25.3 |  7.60
Output  | 0.00011911 | 0.00013473 | 0.00016717 |   0.0 |  0.00
Modify  | 0.032087   | 0.043236   | 0.059825   |   5.2 |  0.95
Other   |            | 0.05352    |            |       |  1.17

Nlocal:         281.25 ave         297 max         261 min
Histogram: 1 5 4 6 4 5 4 5 9 5
Nghost:        1264.44 ave        1295 max        1232 min
Histogram: 3 8 9 3 1 0 4 4 11 5
Neighs:              0 ave           0 max           0 min
Histogram: 48 0 0 0 0 0 0 0 0 0
FullNghs:      14505.4 ave       15303 max       13350 min
Histogram: 1 1 7 7 4 5 2 7 8 6

Total # of neighbors = 696260
Ave neighs/atom = 51.574815
Neighbor list builds = 9
Dangerous builds = 0

# Obtain new stress tensor

variable pxx1 equal f_avp[1]
variable pyy1 equal f_avp[2]
variable pzz1 equal f_avp[3]
variable pxy1 equal f_avp[4]
variable pxz1 equal f_avp[5]
variable pyz1 equal f_avp[6]

# Compute elastic constant from pressure tensor

variable C1neg equal ${d1}
variable C1neg equal 0.1579598502115
variable C2neg equal ${d2}
variable C2neg equal 1.24576650610599
variable C3neg equal ${d3}
variable C3neg equal 2.2324827884665
variable C4neg equal ${d4}
variable C4neg equal -0.19456495724633
variable C5neg equal ${d5}
variable C5neg equal 14.2013788665728
variable C6neg equal ${d6}
variable C6neg equal 2.24923763857716

# Reset box and simulation parameters

clear
box tilt large
read_restart restart.equil
Reading restart file ...
  restart file = 24 Mar 2022, LAMMPS = 24 Mar 2022
  restoring atom style atomic from restart
  triclinic box = (0 0 0) to (69.064169 59.811324 87.316633) with tilt (-34.532084 0 0)
  4 by 3 by 4 MPI processor grid
  pair style nep stores no restart info
  13500 atoms
  read_restart CPU = 0.033 seconds
include potential.mod
# NOTE: This script can be modified for different pair styles
# See in.elastic for more info.

# we must undefine any fix ave/* fix before using reset_timestep
if "$(is_defined(fix,avp))" then "unfix avp"
reset_timestep 0

# MTP potential
pair_style  nep
pair_coeff  * * nep_y2026_m09_d04_h13_m17_s19_generation300000.txt Mg Bi


# Setup neighbor style
neighbor 1.0 nsq
neigh_modify once no every 1 delay 0 check yes

# Setup output

fix avp all ave/time  ${nevery} ${nrepeat} ${nfreq} c_thermo_press mode vector
fix avp all ave/time  10 ${nrepeat} ${nfreq} c_thermo_press mode vector
fix avp all ave/time  10 10 ${nfreq} c_thermo_press mode vector
fix avp all ave/time  10 10 100 c_thermo_press mode vector
thermo		${nthermo}
thermo		100
thermo_style custom step temp pe press f_avp[1] f_avp[2] f_avp[3] f_avp[4] f_avp[5] f_avp[6]
thermo_modify norm no

# Setup MD

timestep ${timestep}
timestep 0.001
fix 4 all nve
if "${thermostat} == 1" then    "fix 5 all langevin ${temp} ${temp} ${tdamp} ${seed}"
fix 5 all langevin ${temp} ${temp} ${tdamp} ${seed}
fix 5 all langevin 900 ${temp} ${tdamp} ${seed}
fix 5 all langevin 900 900 ${tdamp} ${seed}
fix 5 all langevin 900 900 0.01 ${seed}
fix 5 all langevin 900 900 0.01 123457



# Positive deformation

variable delta equal ${up}*${len0}
variable delta equal 0.02*${len0}
variable delta equal 0.02*87.316633332
variable deltaxy equal ${up}*xy
variable deltaxy equal 0.02*xy
variable deltaxz equal ${up}*xz
variable deltaxz equal 0.02*xz
variable deltayz equal ${up}*yz
variable deltayz equal 0.02*yz
if "${dir} == 1" then    "change_box all x delta 0 ${delta} xy delta ${deltaxy} xz delta ${deltaxz} remap units box"
if "${dir} == 2" then    "change_box all y delta 0 ${delta} yz delta ${deltayz} remap units box"
if "${dir} == 3" then    "change_box all z delta 0 ${delta} remap units box"
if "${dir} == 4" then    "change_box all yz delta ${delta} remap units box"
if "${dir} == 5" then    "change_box all xz delta ${delta} remap units box"
change_box all xz delta ${delta} remap units box
change_box all xz delta 1.74633266664 remap units box
Changing box ...
  triclinic box = (0 0 0) to (69.064169 59.811324 87.316633) with tilt (-34.532084 1.7463327 0)
if "${dir} == 6" then    "change_box all xy delta ${delta} remap units box"

# Run MD

run ${nequil}
run 1000
Neighbor list info ...
  update every 1 steps, delay 0 steps, check yes
  max neighbors/atom: 2000, page size: 100000
  master list distance cutoff = 7
  ghost atom cutoff = 7
  1 neighbor lists, perpetual/occasional/extra = 1 0 0
  (1) pair nep, perpetual
      attributes: full, newton on
      pair build: full/nsq
      stencil: none
      bin: none
Per MPI rank memory allocation (min/avg/max) = 3.065 | 3.068 | 3.079 Mbytes
   Step          Temp          PotEng         Press         f_avp[1]       f_avp[2]       f_avp[3]       f_avp[4]       f_avp[5]       f_avp[6]   
         0   905.524       -40684.441      19884.966      0              0              0              0              0              0            
       100   902.241       -40668.243      19959.619      20786.629      20217.61       18368.695      190.629       -3947.0623     -302.68531    
       200   891.07095     -40666.888      19932.157      20942.609      20412.211      18272.591     -267.14183     -3404.8394     -288.7873     
       300   904.76776     -40666.699      19906.62       20581.191      20749.803      18454.178     -543.11859     -3172.454      -46.022674    
       400   896.57097     -40650.857      19997.229      20578.715      20830.176      18457.312     -28.850152     -3488.9698      83.308614    
       500   895.51115     -40624.42       20333.253      21432.815      20396.555      18715.218     -204.45221     -3377.2935     -188.55424    
       600   896.82457     -40619.952      20236.553      21278.28       20756.953      18542.464     -263.39141     -3312.7275     -110.70225    
       700   898.7631      -40637.523      19987.801      20939.522      20761.831      18608.493     -227.99005     -3315.1676     -7.0696469    
       800   902.59063     -40615.792      20207.271      20766.137      20813.01       18576.307     -213.24797     -3193.2123     -107.84458    
       900   905.29538     -40606.738      20227.732      20990.322      20796.815      18797.329     -233.08421     -3157.2434     -227.98036    
      1000   888.50045     -40608.219      20215.759      20927.935      20792.854      18926.735     -143.31075     -3175.4212      26.981308    
Loop time of 15.156 on 48 procs for 1000 steps with 13500 atoms

Performance: 5.701 ns/day, 4.210 hours/ns, 65.980 timesteps/s
99.6% CPU use with 48 MPI tasks x no OpenMP threads

MPI task timing breakdown:
Section |  min time  |  avg time  |  max time  |%varavg| %total
---------------------------------------------------------------
Pair    | 12.936     | 13.682     | 14.433     |  13.8 | 90.28
Neigh   | 0.059141   | 0.063257   | 0.067715   |   1.3 |  0.42
Comm    | 0.50546    | 1.1793     | 1.9026     |  42.7 |  7.78
Output  | 0.00046802 | 0.00049798 | 0.00061708 |   0.0 |  0.00
Modify  | 0.018307   | 0.026139   | 0.038418   |   3.4 |  0.17
Other   |            | 0.2044     |            |       |  1.35

Nlocal:         281.25 ave         297 max         267 min
Histogram: 5 10 5 2 3 2 2 6 8 5
Nghost:        1264.67 ave        1298 max        1232 min
Histogram: 4 6 10 4 0 0 4 10 9 1
Neighs:              0 ave           0 max           0 min
Histogram: 48 0 0 0 0 0 0 0 0 0
FullNghs:      14498.2 ave       15297 max       13767 min
Histogram: 7 9 5 2 2 3 2 5 6 7

Total # of neighbors = 695912
Ave neighs/atom = 51.549037
Neighbor list builds = 32
Dangerous builds = 0
include potential.mod
# NOTE: This script can be modified for different pair styles
# See in.elastic for more info.

# we must undefine any fix ave/* fix before using reset_timestep
if "$(is_defined(fix,avp))" then "unfix avp"
unfix avp
reset_timestep 0

# MTP potential
pair_style  nep
pair_coeff  * * nep_y2026_m09_d04_h13_m17_s19_generation300000.txt Mg Bi


# Setup neighbor style
neighbor 1.0 nsq
neigh_modify once no every 1 delay 0 check yes

# Setup output

fix avp all ave/time  ${nevery} ${nrepeat} ${nfreq} c_thermo_press mode vector
fix avp all ave/time  10 ${nrepeat} ${nfreq} c_thermo_press mode vector
fix avp all ave/time  10 10 ${nfreq} c_thermo_press mode vector
fix avp all ave/time  10 10 100 c_thermo_press mode vector
thermo		${nthermo}
thermo		100
thermo_style custom step temp pe press f_avp[1] f_avp[2] f_avp[3] f_avp[4] f_avp[5] f_avp[6]
WARNING: New thermo_style command, previous thermo_modify settings will be lost (../output.cpp:896)
thermo_modify norm no

# Setup MD

timestep ${timestep}
timestep 0.001
fix 4 all nve
if "${thermostat} == 1" then    "fix 5 all langevin ${temp} ${temp} ${tdamp} ${seed}"
fix 5 all langevin ${temp} ${temp} ${tdamp} ${seed}
fix 5 all langevin 900 ${temp} ${tdamp} ${seed}
fix 5 all langevin 900 900 ${tdamp} ${seed}
fix 5 all langevin 900 900 0.01 ${seed}
fix 5 all langevin 900 900 0.01 123457


run ${nrun}
run 300
Per MPI rank memory allocation (min/avg/max) = 3.066 | 3.071 | 3.081 Mbytes
   Step          Temp          PotEng         Press         f_avp[1]       f_avp[2]       f_avp[3]       f_avp[4]       f_avp[5]       f_avp[6]   
         0   888.50045     -40608.219      20215.759      0              0              0              0              0              0            
       100   895.55408     -40593.947      20252.813      21026.224      20693.686      18802.69      -488.80359     -2855.6955      33.652628    
       200   906.4696      -40597.086      20164.178      20679.454      21060.586      18692.33      -25.995047     -2938.006       172.2997     
       300   899.24835     -40611.739      19890.436      20697.522      20841.159      18603.877     -102.12025     -3162.4318      73.976599    
Loop time of 4.51423 on 48 procs for 300 steps with 13500 atoms

Performance: 5.742 ns/day, 4.180 hours/ns, 66.457 timesteps/s
99.6% CPU use with 48 MPI tasks x no OpenMP threads

MPI task timing breakdown:
Section |  min time  |  avg time  |  max time  |%varavg| %total
---------------------------------------------------------------
Pair    | 3.877      | 4.1075     | 4.3703     |   7.6 | 90.99
Neigh   | 0.018556   | 0.019858   | 0.021366   |   0.7 |  0.44
Comm    | 0.048627   | 0.33535    | 0.57563    |  26.6 |  7.43
Output  | 0.00012553 | 0.00014358 | 0.00017176 |   0.0 |  0.00
Modify  | 0.0053462  | 0.0070228  | 0.010364   |   1.7 |  0.16
Other   |            | 0.04434    |            |       |  0.98

Nlocal:         281.25 ave         302 max         266 min
Histogram: 7 9 3 4 2 7 7 6 2 1
Nghost:        1264.56 ave        1292 max        1232 min
Histogram: 2 8 8 3 2 1 2 3 10 9
Neighs:              0 ave           0 max           0 min
Histogram: 48 0 0 0 0 0 0 0 0 0
FullNghs:      14503.3 ave       15634 max       13705 min
Histogram: 7 8 6 2 4 7 5 7 1 1

Total # of neighbors = 696158
Ave neighs/atom = 51.567259
Neighbor list builds = 10
Dangerous builds = 0

# Obtain new stress tensor

variable pxx1 equal f_avp[1]
variable pyy1 equal f_avp[2]
variable pzz1 equal f_avp[3]
variable pxy1 equal f_avp[4]
variable pxz1 equal f_avp[5]
variable pyz1 equal f_avp[6]

# Compute elastic constant from pressure tensor

variable C1pos equal ${d1}
variable C1pos equal -0.0427153444034957
variable C2pos equal ${d2}
variable C2pos equal -3.49825142833899
variable C3pos equal ${d3}
variable C3pos equal -0.841630865301486
variable C4pos equal ${d4}
variable C4pos equal -0.952456801506964
variable C5pos equal ${d5}
variable C5pos equal 16.2727695553241
variable C6pos equal ${d6}
variable C6pos equal 0.155067715299249

# Combine positive and negative

variable C1${dir} equal 0.5*(${C1neg}+${C1pos})
variable C15 equal 0.5*(${C1neg}+${C1pos})
variable C15 equal 0.5*(0.1579598502115+${C1pos})
variable C15 equal 0.5*(0.1579598502115+-0.0427153444034957)
variable C2${dir} equal 0.5*(${C2neg}+${C2pos})
variable C25 equal 0.5*(${C2neg}+${C2pos})
variable C25 equal 0.5*(1.24576650610599+${C2pos})
variable C25 equal 0.5*(1.24576650610599+-3.49825142833899)
variable C3${dir} equal 0.5*(${C3neg}+${C3pos})
variable C35 equal 0.5*(${C3neg}+${C3pos})
variable C35 equal 0.5*(2.2324827884665+${C3pos})
variable C35 equal 0.5*(2.2324827884665+-0.841630865301486)
variable C4${dir} equal 0.5*(${C4neg}+${C4pos})
variable C45 equal 0.5*(${C4neg}+${C4pos})
variable C45 equal 0.5*(-0.19456495724633+${C4pos})
variable C45 equal 0.5*(-0.19456495724633+-0.952456801506964)
variable C5${dir} equal 0.5*(${C5neg}+${C5pos})
variable C55 equal 0.5*(${C5neg}+${C5pos})
variable C55 equal 0.5*(14.2013788665728+${C5pos})
variable C55 equal 0.5*(14.2013788665728+16.2727695553241)
variable C6${dir} equal 0.5*(${C6neg}+${C6pos})
variable C65 equal 0.5*(${C6neg}+${C6pos})
variable C65 equal 0.5*(2.24923763857716+${C6pos})
variable C65 equal 0.5*(2.24923763857716+0.155067715299249)

# Delete dir to make sure it is not reused

variable dir delete

# uxy Perturbation

variable dir equal 6
include displace.mod
# NOTE: This script should not need to be
# modified. See in.elastic for more info.
#
# Find which reference length to use

if "${dir} == 1" then    "variable len0 equal ${lx0}"
if "${dir} == 2" then    "variable len0 equal ${ly0}"
if "${dir} == 3" then    "variable len0 equal ${lz0}"
if "${dir} == 4" then    "variable len0 equal ${lz0}"
if "${dir} == 5" then    "variable len0 equal ${lz0}"
if "${dir} == 6" then    "variable len0 equal ${ly0}"
variable len0 equal ${ly0}
variable len0 equal 59.81132442

# Reset box and simulation parameters

clear
box tilt large
read_restart restart.equil
Reading restart file ...
  restart file = 24 Mar 2022, LAMMPS = 24 Mar 2022
  restoring atom style atomic from restart
  triclinic box = (0 0 0) to (69.064169 59.811324 87.316633) with tilt (-34.532084 0 0)
  4 by 3 by 4 MPI processor grid
  pair style nep stores no restart info
  13500 atoms
  read_restart CPU = 0.059 seconds
include potential.mod
# NOTE: This script can be modified for different pair styles
# See in.elastic for more info.

# we must undefine any fix ave/* fix before using reset_timestep
if "$(is_defined(fix,avp))" then "unfix avp"
reset_timestep 0

# MTP potential
pair_style  nep
pair_coeff  * * nep_y2026_m09_d04_h13_m17_s19_generation300000.txt Mg Bi


# Setup neighbor style
neighbor 1.0 nsq
neigh_modify once no every 1 delay 0 check yes

# Setup output

fix avp all ave/time  ${nevery} ${nrepeat} ${nfreq} c_thermo_press mode vector
fix avp all ave/time  10 ${nrepeat} ${nfreq} c_thermo_press mode vector
fix avp all ave/time  10 10 ${nfreq} c_thermo_press mode vector
fix avp all ave/time  10 10 100 c_thermo_press mode vector
thermo		${nthermo}
thermo		100
thermo_style custom step temp pe press f_avp[1] f_avp[2] f_avp[3] f_avp[4] f_avp[5] f_avp[6]
thermo_modify norm no

# Setup MD

timestep ${timestep}
timestep 0.001
fix 4 all nve
if "${thermostat} == 1" then    "fix 5 all langevin ${temp} ${temp} ${tdamp} ${seed}"
fix 5 all langevin ${temp} ${temp} ${tdamp} ${seed}
fix 5 all langevin 900 ${temp} ${tdamp} ${seed}
fix 5 all langevin 900 900 ${tdamp} ${seed}
fix 5 all langevin 900 900 0.01 ${seed}
fix 5 all langevin 900 900 0.01 123457



# Negative deformation

variable delta equal -${up}*${len0}
variable delta equal -0.02*${len0}
variable delta equal -0.02*59.81132442
variable deltaxy equal -${up}*xy
variable deltaxy equal -0.02*xy
variable deltaxz equal -${up}*xz
variable deltaxz equal -0.02*xz
variable deltayz equal -${up}*yz
variable deltayz equal -0.02*yz
if "${dir} == 1" then    "change_box all x delta 0 ${delta} xy delta ${deltaxy} xz delta ${deltaxz} remap units box"
if "${dir} == 2" then    "change_box all y delta 0 ${delta} yz delta ${deltayz} remap units box"
if "${dir} == 3" then    "change_box all z delta 0 ${delta} remap units box"
if "${dir} == 4" then    "change_box all yz delta ${delta} remap units box"
if "${dir} == 5" then    "change_box all xz delta ${delta} remap units box"
if "${dir} == 6" then    "change_box all xy delta ${delta} remap units box"
change_box all xy delta ${delta} remap units box
change_box all xy delta -1.1962264884 remap units box
Changing box ...
WARNING: Triclinic box skew is large (../domain.cpp:228)
  triclinic box = (0 0 0) to (69.064169 59.811324 87.316633) with tilt (-35.728311 0 0)

# Run MD

run ${nequil}
run 1000
Neighbor list info ...
  update every 1 steps, delay 0 steps, check yes
  max neighbors/atom: 2000, page size: 100000
  master list distance cutoff = 7
  ghost atom cutoff = 7
  1 neighbor lists, perpetual/occasional/extra = 1 0 0
  (1) pair nep, perpetual
      attributes: full, newton on
      pair build: full/nsq
      stencil: none
      bin: none
Per MPI rank memory allocation (min/avg/max) = 3.065 | 3.068 | 3.079 Mbytes
   Step          Temp          PotEng         Press         f_avp[1]       f_avp[2]       f_avp[3]       f_avp[4]       f_avp[5]       f_avp[6]   
         0   905.524       -40683.765      19889.175      0              0              0              0              0              0            
       100   890.23672     -40679          19648.095      20642.296      20245.745      18185.872      3367.372      -170.75362     -325.53138    
       200   888.96636     -40671.315      19760.2        20714.804      20226.02       18236.169      2517.2599      252.03248     -161.71824    
       300   903.23164     -40654.45       19957.497      20882.005      20576.228      18352.737      2524.0542      223.16936     -178.64056    
       400   902.78986     -40653.696      20013.803      20837.448      20578.454      18523.451      1986.817       451.05126     -160.73342    
       500   895.95672     -40661.584      19754.582      20428.674      21065.165      18544.389      2208.1136      413.18431      75.875592    
       600   904.38746     -40639.247      20007.014      20370.724      20753.469      18485.8        2443.8474      413.91348      58.439301    
       700   909.32062     -40625.117      20197.26       20618.932      21080.469      18869.676      2498.8859      583.05224      198.00094    
       800   898.18551     -40627.757      20043.172      20742.407      21073.784      18595.884      2315.3016      429.46172      70.130636    
       900   881.72633     -40616.032      19923.096      20519.07       21024.058      18393.13       1959.7159      539.01097      84.90424     
      1000   909.61285     -40625.621      19916.057      20379.461      20666.118      18812.836      2093.7083      429.07055      83.86993     
Loop time of 15.0998 on 48 procs for 1000 steps with 13500 atoms

Performance: 5.722 ns/day, 4.194 hours/ns, 66.226 timesteps/s
99.6% CPU use with 48 MPI tasks x no OpenMP threads

MPI task timing breakdown:
Section |  min time  |  avg time  |  max time  |%varavg| %total
---------------------------------------------------------------
Pair    | 12.829     | 13.671     | 14.455     |  14.3 | 90.54
Neigh   | 0.058818   | 0.063576   | 0.067718   |   1.3 |  0.42
Comm    | 0.38368    | 1.1436     | 1.9552     |  46.4 |  7.57
Output  | 0.0004112  | 0.00043916 | 0.00055699 |   0.0 |  0.00
Modify  | 0.037381   | 0.045912   | 0.057853   |   2.2 |  0.30
Other   |            | 0.1753     |            |       |  1.16

Nlocal:         281.25 ave         299 max         265 min
Histogram: 7 5 7 2 2 4 4 10 3 4
Nghost:        1270.73 ave        1299 max        1241 min
Histogram: 4 6 9 5 0 0 4 6 10 4
Neighs:              0 ave           0 max           0 min
Histogram: 48 0 0 0 0 0 0 0 0 0
FullNghs:      14492.5 ave       15418 max       13556 min
Histogram: 5 4 7 6 1 4 5 5 7 4

Total # of neighbors = 695640
Ave neighs/atom = 51.528889
Neighbor list builds = 32
Dangerous builds = 0
include potential.mod
# NOTE: This script can be modified for different pair styles
# See in.elastic for more info.

# we must undefine any fix ave/* fix before using reset_timestep
if "$(is_defined(fix,avp))" then "unfix avp"
unfix avp
reset_timestep 0

# MTP potential
pair_style  nep
pair_coeff  * * nep_y2026_m09_d04_h13_m17_s19_generation300000.txt Mg Bi


# Setup neighbor style
neighbor 1.0 nsq
neigh_modify once no every 1 delay 0 check yes

# Setup output

fix avp all ave/time  ${nevery} ${nrepeat} ${nfreq} c_thermo_press mode vector
fix avp all ave/time  10 ${nrepeat} ${nfreq} c_thermo_press mode vector
fix avp all ave/time  10 10 ${nfreq} c_thermo_press mode vector
fix avp all ave/time  10 10 100 c_thermo_press mode vector
thermo		${nthermo}
thermo		100
thermo_style custom step temp pe press f_avp[1] f_avp[2] f_avp[3] f_avp[4] f_avp[5] f_avp[6]
WARNING: New thermo_style command, previous thermo_modify settings will be lost (../output.cpp:896)
thermo_modify norm no

# Setup MD

timestep ${timestep}
timestep 0.001
fix 4 all nve
if "${thermostat} == 1" then    "fix 5 all langevin ${temp} ${temp} ${tdamp} ${seed}"
fix 5 all langevin ${temp} ${temp} ${tdamp} ${seed}
fix 5 all langevin 900 ${temp} ${tdamp} ${seed}
fix 5 all langevin 900 900 ${tdamp} ${seed}
fix 5 all langevin 900 900 0.01 ${seed}
fix 5 all langevin 900 900 0.01 123457


run ${nrun}
run 300
Per MPI rank memory allocation (min/avg/max) = 3.066 | 3.071 | 3.081 Mbytes
   Step          Temp          PotEng         Press         f_avp[1]       f_avp[2]       f_avp[3]       f_avp[4]       f_avp[5]       f_avp[6]   
         0   909.61285     -40625.621      19916.057      0              0              0              0              0              0            
       100   897.92662     -40606.5        20062.895      20812.602      20613.007      18625.599      2288.552       370.91797     -208.09908    
       200   906.8558      -40605.077      20167.729      20782.083      20809.48       18803.756      2238.2341      306.75435     -147.20121    
       300   901.32116     -40608.196      20133.806      20759.525      20681.224      18806.841      2320.9278      343.56792     -144.75071    
Loop time of 4.66846 on 48 procs for 300 steps with 13500 atoms

Performance: 5.552 ns/day, 4.323 hours/ns, 64.261 timesteps/s
99.5% CPU use with 48 MPI tasks x no OpenMP threads

MPI task timing breakdown:
Section |  min time  |  avg time  |  max time  |%varavg| %total
---------------------------------------------------------------
Pair    | 3.8398     | 4.1095     | 4.4531     |   8.1 | 88.03
Neigh   | 0.016625   | 0.017946   | 0.019392   |   0.7 |  0.38
Comm    | 0.11651    | 0.43174    | 0.65007    |  23.4 |  9.25
Output  | 0.00012267 | 0.00013179 | 0.00016776 |   0.0 |  0.00
Modify  | 0.0053302  | 0.0076502  | 0.013498   |   2.1 |  0.16
Other   |            | 0.1015     |            |       |  2.17

Nlocal:         281.25 ave         298 max         265 min
Histogram: 5 5 6 6 1 4 7 6 5 3
Nghost:        1270.17 ave        1302 max        1240 min
Histogram: 5 7 6 4 2 3 1 11 7 2
Neighs:              0 ave           0 max           0 min
Histogram: 48 0 0 0 0 0 0 0 0 0
FullNghs:      14501.6 ave       15441 max       13637 min
Histogram: 8 2 7 4 3 3 7 6 5 3

Total # of neighbors = 696078
Ave neighs/atom = 51.561333
Neighbor list builds = 9
Dangerous builds = 0

# Obtain new stress tensor

variable pxx1 equal f_avp[1]
variable pyy1 equal f_avp[2]
variable pzz1 equal f_avp[3]
variable pxy1 equal f_avp[4]
variable pxz1 equal f_avp[5]
variable pyz1 equal f_avp[6]

# Compute elastic constant from pressure tensor

variable C1neg equal ${d1}
variable C1neg equal 0.352726205175986
variable C2neg equal ${d2}
variable C2neg equal 2.6985760108465
variable C3neg equal ${d3}
variable C3neg equal 1.85644892265
variable C4neg equal ${d4}
variable C4neg equal -0.14117975992337
variable C5neg equal ${d5}
variable C5neg equal 1.25722926268511
variable C6neg equal ${d6}
variable C6neg equal 11.9601724138425

# Reset box and simulation parameters

clear
box tilt large
read_restart restart.equil
Reading restart file ...
  restart file = 24 Mar 2022, LAMMPS = 24 Mar 2022
  restoring atom style atomic from restart
  triclinic box = (0 0 0) to (69.064169 59.811324 87.316633) with tilt (-34.532084 0 0)
  4 by 3 by 4 MPI processor grid
  pair style nep stores no restart info
  13500 atoms
  read_restart CPU = 0.004 seconds
include potential.mod
# NOTE: This script can be modified for different pair styles
# See in.elastic for more info.

# we must undefine any fix ave/* fix before using reset_timestep
if "$(is_defined(fix,avp))" then "unfix avp"
reset_timestep 0

# MTP potential
pair_style  nep
pair_coeff  * * nep_y2026_m09_d04_h13_m17_s19_generation300000.txt Mg Bi


# Setup neighbor style
neighbor 1.0 nsq
neigh_modify once no every 1 delay 0 check yes

# Setup output

fix avp all ave/time  ${nevery} ${nrepeat} ${nfreq} c_thermo_press mode vector
fix avp all ave/time  10 ${nrepeat} ${nfreq} c_thermo_press mode vector
fix avp all ave/time  10 10 ${nfreq} c_thermo_press mode vector
fix avp all ave/time  10 10 100 c_thermo_press mode vector
thermo		${nthermo}
thermo		100
thermo_style custom step temp pe press f_avp[1] f_avp[2] f_avp[3] f_avp[4] f_avp[5] f_avp[6]
thermo_modify norm no

# Setup MD

timestep ${timestep}
timestep 0.001
fix 4 all nve
if "${thermostat} == 1" then    "fix 5 all langevin ${temp} ${temp} ${tdamp} ${seed}"
fix 5 all langevin ${temp} ${temp} ${tdamp} ${seed}
fix 5 all langevin 900 ${temp} ${tdamp} ${seed}
fix 5 all langevin 900 900 ${tdamp} ${seed}
fix 5 all langevin 900 900 0.01 ${seed}
fix 5 all langevin 900 900 0.01 123457



# Positive deformation

variable delta equal ${up}*${len0}
variable delta equal 0.02*${len0}
variable delta equal 0.02*59.81132442
variable deltaxy equal ${up}*xy
variable deltaxy equal 0.02*xy
variable deltaxz equal ${up}*xz
variable deltaxz equal 0.02*xz
variable deltayz equal ${up}*yz
variable deltayz equal 0.02*yz
if "${dir} == 1" then    "change_box all x delta 0 ${delta} xy delta ${deltaxy} xz delta ${deltaxz} remap units box"
if "${dir} == 2" then    "change_box all y delta 0 ${delta} yz delta ${deltayz} remap units box"
if "${dir} == 3" then    "change_box all z delta 0 ${delta} remap units box"
if "${dir} == 4" then    "change_box all yz delta ${delta} remap units box"
if "${dir} == 5" then    "change_box all xz delta ${delta} remap units box"
if "${dir} == 6" then    "change_box all xy delta ${delta} remap units box"
change_box all xy delta ${delta} remap units box
change_box all xy delta 1.1962264884 remap units box
Changing box ...
  triclinic box = (0 0 0) to (69.064169 59.811324 87.316633) with tilt (-33.335858 0 0)

# Run MD

run ${nequil}
run 1000
Neighbor list info ...
  update every 1 steps, delay 0 steps, check yes
  max neighbors/atom: 2000, page size: 100000
  master list distance cutoff = 7
  ghost atom cutoff = 7
  1 neighbor lists, perpetual/occasional/extra = 1 0 0
  (1) pair nep, perpetual
      attributes: full, newton on
      pair build: full/nsq
      stencil: none
      bin: none
Per MPI rank memory allocation (min/avg/max) = 3.065 | 3.068 | 3.078 Mbytes
   Step          Temp          PotEng         Press         f_avp[1]       f_avp[2]       f_avp[3]       f_avp[4]       f_avp[5]       f_avp[6]   
         0   905.524       -40685.43       19880.573      0              0              0              0              0              0            
       100   897.08029     -40684.816      19660.604      20593.221      20387.851      18225.467     -3718.5475      519.36442     -287.05218    
       200   905.22834     -40670.109      19734.363      20188.651      20421.774      17966.252     -2365.6902     -263.98104     -101.17552    
       300   905.10434     -40652.172      19827.396      20320.244      20774.183      18171.672     -2073.9739     -349.62555     -71.438061    
       400   914.75936     -40650.559      19845.608      20472.864      20482.437      18330.661     -1977.5888     -498.16745     -210.07676    
       500   902.48434     -40651.194      19755.672      20357.521      20579.475      18341.501     -2001.3227     -559.89198     -105.98228    
       600   901.37086     -40663.934      19652.236      20637.505      20447.126      18294.887     -1949.389      -396.95213     -81.010083    
       700   902.37532     -40637.622      19989.024      20607.245      20496.099      18548.209     -2094.8804     -162.75321     -168.15271    
       800   902.32311     -40623.55       20031.233      20812.913      20328.641      18568.657     -2360.9691      0.74661752    -262.80741    
       900   898.66239     -40638.805      19785.726      20692.867      20585.977      18665.954     -1998.2248     -243.23542     -141.76763    
      1000   904.72549     -40620.709      20053.289      20393.068      20652.107      18630.892     -1926.0256     -192.39942     -121.63229    
Loop time of 15.2317 on 48 procs for 1000 steps with 13500 atoms

Performance: 5.672 ns/day, 4.231 hours/ns, 65.653 timesteps/s
99.6% CPU use with 48 MPI tasks x no OpenMP threads

MPI task timing breakdown:
Section |  min time  |  avg time  |  max time  |%varavg| %total
---------------------------------------------------------------
Pair    | 12.74      | 13.67      | 14.563     |  14.6 | 89.75
Neigh   | 0.058053   | 0.063122   | 0.067979   |   1.3 |  0.41
Comm    | 0.28653    | 1.2208     | 2.2171     |  49.2 |  8.01
Output  | 0.00044271 | 0.00047307 | 0.00060704 |   0.0 |  0.00
Modify  | 0.018204   | 0.0367     | 0.066107   |   8.6 |  0.24
Other   |            | 0.2402     |            |       |  1.58

Nlocal:         281.25 ave         299 max         263 min
Histogram: 2 4 9 7 2 2 8 6 5 3
Nghost:        1259.71 ave        1297 max        1228 min
Histogram: 5 10 9 0 0 3 3 10 7 1
Neighs:              0 ave           0 max           0 min
Histogram: 48 0 0 0 0 0 0 0 0 0
FullNghs:      14487.1 ave       15408 max       13425 min
Histogram: 2 3 5 8 6 3 3 8 6 4

Total # of neighbors = 695380
Ave neighs/atom = 51.50963
Neighbor list builds = 32
Dangerous builds = 0
include potential.mod
# NOTE: This script can be modified for different pair styles
# See in.elastic for more info.

# we must undefine any fix ave/* fix before using reset_timestep
if "$(is_defined(fix,avp))" then "unfix avp"
unfix avp
reset_timestep 0

# MTP potential
pair_style  nep
pair_coeff  * * nep_y2026_m09_d04_h13_m17_s19_generation300000.txt Mg Bi


# Setup neighbor style
neighbor 1.0 nsq
neigh_modify once no every 1 delay 0 check yes

# Setup output

fix avp all ave/time  ${nevery} ${nrepeat} ${nfreq} c_thermo_press mode vector
fix avp all ave/time  10 ${nrepeat} ${nfreq} c_thermo_press mode vector
fix avp all ave/time  10 10 ${nfreq} c_thermo_press mode vector
fix avp all ave/time  10 10 100 c_thermo_press mode vector
thermo		${nthermo}
thermo		100
thermo_style custom step temp pe press f_avp[1] f_avp[2] f_avp[3] f_avp[4] f_avp[5] f_avp[6]
WARNING: New thermo_style command, previous thermo_modify settings will be lost (../output.cpp:896)
thermo_modify norm no

# Setup MD

timestep ${timestep}
timestep 0.001
fix 4 all nve
if "${thermostat} == 1" then    "fix 5 all langevin ${temp} ${temp} ${tdamp} ${seed}"
fix 5 all langevin ${temp} ${temp} ${tdamp} ${seed}
fix 5 all langevin 900 ${temp} ${tdamp} ${seed}
fix 5 all langevin 900 900 ${tdamp} ${seed}
fix 5 all langevin 900 900 0.01 ${seed}
fix 5 all langevin 900 900 0.01 123457


run ${nrun}
run 300
Per MPI rank memory allocation (min/avg/max) = 3.066 | 3.072 | 3.081 Mbytes
   Step          Temp          PotEng         Press         f_avp[1]       f_avp[2]       f_avp[3]       f_avp[4]       f_avp[5]       f_avp[6]   
         0   904.72549     -40620.709      20053.289      0              0              0              0              0              0            
       100   905.61246     -40629.04       19971.51       20480.207      20733.779      18753.013     -2085.0197     -154.44811     -87.592085    
       200   905.27312     -40592.189      20399.754      20692.923      20720.938      19134.649     -1822.6254     -321.65859     -216.24648    
       300   900.56594     -40606.741      20258.261      20806.039      20970.142      19015.719     -2069.631      -290.8039      -96.249598    
Loop time of 4.48905 on 48 procs for 300 steps with 13500 atoms

Performance: 5.774 ns/day, 4.157 hours/ns, 66.829 timesteps/s
99.7% CPU use with 48 MPI tasks x no OpenMP threads

MPI task timing breakdown:
Section |  min time  |  avg time  |  max time  |%varavg| %total
---------------------------------------------------------------
Pair    | 3.8265     | 4.1035     | 4.3872     |   7.9 | 91.41
Neigh   | 0.016294   | 0.01771    | 0.019083   |   0.7 |  0.39
Comm    | 0.052882   | 0.32391    | 0.61512    |  27.1 |  7.22
Output  | 0.0001032  | 0.00011351 | 0.00015055 |   0.0 |  0.00
Modify  | 0.0053395  | 0.0081836  | 0.015439   |   3.0 |  0.18
Other   |            | 0.03559    |            |       |  0.79

Nlocal:         281.25 ave         298 max         264 min
Histogram: 2 6 11 1 4 2 5 9 4 4
Nghost:         1257.9 ave        1290 max        1217 min
Histogram: 1 3 10 8 2 0 2 6 9 7
Neighs:              0 ave           0 max           0 min
Histogram: 48 0 0 0 0 0 0 0 0 0
FullNghs:      14508.9 ave       15410 max       13662 min
Histogram: 6 2 11 3 2 3 6 6 7 2

Total # of neighbors = 696428
Ave neighs/atom = 51.587259
Neighbor list builds = 9
Dangerous builds = 0

# Obtain new stress tensor

variable pxx1 equal f_avp[1]
variable pyy1 equal f_avp[2]
variable pzz1 equal f_avp[3]
variable pxy1 equal f_avp[4]
variable pxz1 equal f_avp[5]
variable pyz1 equal f_avp[6]

# Compute elastic constant from pressure tensor

variable C1pos equal ${d1}
variable C1pos equal -0.585296375486996
variable C2pos equal ${d2}
variable C2pos equal -4.14316751970849
variable C3pos equal ${d3}
variable C3pos equal -2.90083762204
variable C4pos equal ${d4}
variable C4pos equal -0.101325814341382
variable C5pos equal ${d5}
variable C5pos equal 1.91462983732958
variable C6pos equal ${d6}
variable C6pos equal 9.99262136883442

# Combine positive and negative

variable C1${dir} equal 0.5*(${C1neg}+${C1pos})
variable C16 equal 0.5*(${C1neg}+${C1pos})
variable C16 equal 0.5*(0.352726205175986+${C1pos})
variable C16 equal 0.5*(0.352726205175986+-0.585296375486996)
variable C2${dir} equal 0.5*(${C2neg}+${C2pos})
variable C26 equal 0.5*(${C2neg}+${C2pos})
variable C26 equal 0.5*(2.6985760108465+${C2pos})
variable C26 equal 0.5*(2.6985760108465+-4.14316751970849)
variable C3${dir} equal 0.5*(${C3neg}+${C3pos})
variable C36 equal 0.5*(${C3neg}+${C3pos})
variable C36 equal 0.5*(1.85644892265+${C3pos})
variable C36 equal 0.5*(1.85644892265+-2.90083762204)
variable C4${dir} equal 0.5*(${C4neg}+${C4pos})
variable C46 equal 0.5*(${C4neg}+${C4pos})
variable C46 equal 0.5*(-0.14117975992337+${C4pos})
variable C46 equal 0.5*(-0.14117975992337+-0.101325814341382)
variable C5${dir} equal 0.5*(${C5neg}+${C5pos})
variable C56 equal 0.5*(${C5neg}+${C5pos})
variable C56 equal 0.5*(1.25722926268511+${C5pos})
variable C56 equal 0.5*(1.25722926268511+1.91462983732958)
variable C6${dir} equal 0.5*(${C6neg}+${C6pos})
variable C66 equal 0.5*(${C6neg}+${C6pos})
variable C66 equal 0.5*(11.9601724138425+${C6pos})
variable C66 equal 0.5*(11.9601724138425+9.99262136883442)

# Delete dir to make sure it is not reused

variable dir delete

# Output final values

variable C11all equal ${C11}
variable C11all equal 58.2590817805198
variable C22all equal ${C22}
variable C22all equal 59.4362789356949
variable C33all equal ${C33}
variable C33all equal 65.4985094506419

variable C12all equal 0.5*(${C12}+${C21})
variable C12all equal 0.5*(38.0579845287288+${C21})
variable C12all equal 0.5*(38.0579845287288+36.806064102868)
variable C13all equal 0.5*(${C13}+${C31})
variable C13all equal 0.5*(29.4392036989078+${C31})
variable C13all equal 0.5*(29.4392036989078+28.626626345516)
variable C23all equal 0.5*(${C23}+${C32})
variable C23all equal 0.5*(29.9428851297143+${C32})
variable C23all equal 0.5*(29.9428851297143+29.4269115363132)

variable C44all equal ${C44}
variable C44all equal 15.252506617377
variable C55all equal ${C55}
variable C55all equal 15.2370742109484
variable C66all equal ${C66}
variable C66all equal 10.9763968913385

variable C14all equal 0.5*(${C14}+${C41})
variable C14all equal 0.5*(3.3496092960875+${C41})
variable C14all equal 0.5*(3.3496092960875+1.13124818935197)
variable C15all equal 0.5*(${C15}+${C51})
variable C15all equal 0.5*(0.0576222529040021+${C51})
variable C15all equal 0.5*(0.0576222529040021+-0.142736448293859)
variable C16all equal 0.5*(${C16}+${C61})
variable C16all equal 0.5*(-0.116285085155505+${C61})
variable C16all equal 0.5*(-0.116285085155505+-0.976317153767035)

variable C24all equal 0.5*(${C24}+${C42})
variable C24all equal 0.5*(-0.184195948878245+${C42})
variable C24all equal 0.5*(-0.184195948878245+-1.42199086277865)
variable C25all equal 0.5*(${C25}+${C52})
variable C25all equal 0.5*(-1.1262424611165+${C52})
variable C25all equal 0.5*(-1.1262424611165+0.62736631205409)
variable C26all equal 0.5*(${C26}+${C62})
variable C26all equal 0.5*(-0.722295754430995+${C62})
variable C26all equal 0.5*(-0.722295754430995+-0.596597117454319)

variable C34all equal 0.5*(${C34}+${C43})
variable C34all equal 0.5*(0.67598908998825+${C43})
variable C34all equal 0.5*(0.67598908998825+-0.274795700755388)
variable C35all equal 0.5*(${C35}+${C53})
variable C35all equal 0.5*(0.695425961582507+${C53})
variable C35all equal 0.5*(0.695425961582507+0.833621388219045)
variable C36all equal 0.5*(${C36}+${C63})
variable C36all equal 0.5*(-0.522194349695+${C63})
variable C36all equal 0.5*(-0.522194349695+-0.737750703869378)

variable C45all equal 0.5*(${C45}+${C54})
variable C45all equal 0.5*(-0.573510879376647+${C54})
variable C45all equal 0.5*(-0.573510879376647+0.928652428096228)
variable C46all equal 0.5*(${C46}+${C64})
variable C46all equal 0.5*(-0.121252787132376+${C64})
variable C46all equal 0.5*(-0.121252787132376+-1.74231614585547)
variable C56all equal 0.5*(${C56}+${C65})
variable C56all equal 0.5*(1.58592955000735+${C65})
variable C56all equal 0.5*(1.58592955000735+1.2021526769382)

# Average moduli for cubic crystals

variable C11cubic equal (${C11all}+${C22all}+${C33all})/3.0
variable C11cubic equal (58.2590817805198+${C22all}+${C33all})/3.0
variable C11cubic equal (58.2590817805198+59.4362789356949+${C33all})/3.0
variable C11cubic equal (58.2590817805198+59.4362789356949+65.4985094506419)/3.0
variable C12cubic equal (${C12all}+${C13all}+${C23all})/3.0
variable C12cubic equal (37.4320243157984+${C13all}+${C23all})/3.0
variable C12cubic equal (37.4320243157984+29.0329150222119+${C23all})/3.0
variable C12cubic equal (37.4320243157984+29.0329150222119+29.6848983330137)/3.0
variable C44cubic equal (${C44all}+${C55all}+${C66all})/3.0
variable C44cubic equal (15.252506617377+${C55all}+${C66all})/3.0
variable C44cubic equal (15.252506617377+15.2370742109484+${C66all})/3.0
variable C44cubic equal (15.252506617377+15.2370742109484+10.9763968913385)/3.0

variable bulkmodulus equal (${C11cubic}+2*${C12cubic})/3.0
variable bulkmodulus equal (61.0646233889522+2*${C12cubic})/3.0
variable bulkmodulus equal (61.0646233889522+2*32.0499458903413)/3.0
variable shearmodulus1 equal ${C44cubic}
variable shearmodulus1 equal 13.8219925732213
variable shearmodulus2 equal (${C11cubic}-${C12cubic})/2.0
variable shearmodulus2 equal (61.0646233889522-${C12cubic})/2.0
variable shearmodulus2 equal (61.0646233889522-32.0499458903413)/2.0
variable poissonratio equal 1.0/(1.0+${C11cubic}/${C12cubic})
variable poissonratio equal 1.0/(1.0+61.0646233889522/${C12cubic})
variable poissonratio equal 1.0/(1.0+61.0646233889522/32.0499458903413)

# For Stillinger-Weber silicon, the analytical results
# are known to be (E. R. Cowley, 1988):
#               C11 = 151.4 GPa
#               C12 = 76.4 GPa
#               C44 = 56.4 GPa

print "========================================="
=========================================
print "Components of the Elastic Constant Tensor"
Components of the Elastic Constant Tensor
print "========================================="
=========================================

print "Elastic Constant C11all = ${C11all} ${cunits}"
Elastic Constant C11all = 58.2590817805198 GPa
print "Elastic Constant C22all = ${C22all} ${cunits}"
Elastic Constant C22all = 59.4362789356949 GPa
print "Elastic Constant C33all = ${C33all} ${cunits}"
Elastic Constant C33all = 65.4985094506419 GPa

print "Elastic Constant C12all = ${C12all} ${cunits}"
Elastic Constant C12all = 37.4320243157984 GPa
print "Elastic Constant C13all = ${C13all} ${cunits}"
Elastic Constant C13all = 29.0329150222119 GPa
print "Elastic Constant C23all = ${C23all} ${cunits}"
Elastic Constant C23all = 29.6848983330137 GPa

print "Elastic Constant C44all = ${C44all} ${cunits}"
Elastic Constant C44all = 15.252506617377 GPa
print "Elastic Constant C55all = ${C55all} ${cunits}"
Elastic Constant C55all = 15.2370742109484 GPa
print "Elastic Constant C66all = ${C66all} ${cunits}"
Elastic Constant C66all = 10.9763968913385 GPa

print "Elastic Constant C14all = ${C14all} ${cunits}"
Elastic Constant C14all = 2.24042874271974 GPa
print "Elastic Constant C15all = ${C15all} ${cunits}"
Elastic Constant C15all = -0.0425570976949285 GPa
print "Elastic Constant C16all = ${C16all} ${cunits}"
Elastic Constant C16all = -0.54630111946127 GPa

print "Elastic Constant C24all = ${C24all} ${cunits}"
Elastic Constant C24all = -0.803093405828447 GPa
print "Elastic Constant C25all = ${C25all} ${cunits}"
Elastic Constant C25all = -0.249438074531205 GPa
print "Elastic Constant C26all = ${C26all} ${cunits}"
Elastic Constant C26all = -0.659446435942657 GPa

print "Elastic Constant C34all = ${C34all} ${cunits}"
Elastic Constant C34all = 0.200596694616431 GPa
print "Elastic Constant C35all = ${C35all} ${cunits}"
Elastic Constant C35all = 0.764523674900776 GPa
print "Elastic Constant C36all = ${C36all} ${cunits}"
Elastic Constant C36all = -0.629972526782189 GPa

print "Elastic Constant C45all = ${C45all} ${cunits}"
Elastic Constant C45all = 0.177570774359791 GPa
print "Elastic Constant C46all = ${C46all} ${cunits}"
Elastic Constant C46all = -0.931784466493923 GPa
print "Elastic Constant C56all = ${C56all} ${cunits}"
Elastic Constant C56all = 1.39404111347278 GPa

print "========================================="
=========================================
print "Average properties for a cubic crystal"
Average properties for a cubic crystal
print "========================================="
=========================================

print "Bulk Modulus = ${bulkmodulus} ${cunits}"
Bulk Modulus = 41.7215050565449 GPa
print "Shear Modulus 1 = ${shearmodulus1} ${cunits}"
Shear Modulus 1 = 13.8219925732213 GPa
print "Shear Modulus 2 = ${shearmodulus2} ${cunits}"
Shear Modulus 2 = 14.5073387493055 GPa
print "Poisson Ratio = ${poissonratio}"
Poisson Ratio = 0.344199045739112
Total wall time: 0:04:23
