
     Program PWSCF v.7.5 starts on  7Sep2026 at 13:52:33 
        Git branch: develop
        Last git commit: 3c11e307ebcb4724b3e63ad706b3e9727dda56b0
        Last git commit date: Wed Jul 2 15:08:17 2025 +0000
        Last git commit subject: Merge branch 'a-few-qe-75-chores' into 'develop'

     This program is part of the open-source Quantum ESPRESSO suite
     for quantum simulation of materials; please cite
         "P. Giannozzi et al., J. Phys.:Condens. Matter 21 395502 (2009);
         "P. Giannozzi et al., J. Phys.:Condens. Matter 29 465901 (2017);
         "P. Giannozzi et al., J. Chem. Phys. 152 154105 (2020);
          URL http://www.quantum-espresso.org", 
     in publications or presentations arising from this work. More details at
     http://www.quantum-espresso.org/quote

     Parallel version (MPI), running on   240 processors

     MPI processes distributed on     5 nodes
     726494 MiB available memory on the printing compute node when the environment starts
 
     Waiting for input...
     Reading input from standard input

     Current dimensions of program PWSCF are:
     Max number of different atomic species (ntypx) = 10
     Max number of k-points (npk) =  40000
     Max angular momentum in pseudopotentials (lmaxx) =  4

     Atomic positions and unit cell read from directory:
     ./tmp/mg3bi2.save/
 
     Message from routine setup:
     using ibrav=0 with symmetry is DISCOURAGED, use correct ibrav instead
 
     K-points division:     npool     =       4
     R & G space division:  proc/nbgrp/npool/nimage =      60
     Subspace diagonalization in iterative solution of the eigenvalue problem:
     a serial algorithm will be used

 
     Parallelization info
     --------------------
     sticks:   dense  smooth     PW     G-vecs:    dense   smooth      PW
     Min          55      55     15                 4103     4103     579
     Max          56      56     16                 4112     4112     587
     Sum        3331    3331    913               246357   246357   34977
 
     Using Slab Decomposition
 


     bravais-lattice index     =            0
     lattice parameter (alat)  =       8.7009  a.u.
     unit-cell volume          =     901.5161 (a.u.)^3
     number of atoms/cell      =            5
     number of atomic types    =            2
     number of electrons       =        60.00
     number of Kohn-Sham states=           50
     kinetic-energy cutoff     =     160.0000  Ry
     charge density cutoff     =     640.0000  Ry
     Exchange-correlation= SLA  PW   NOGX NOGC
                           (   1   4   0   0   0   0   0)

     celldm(1)=   8.700867  celldm(2)=   0.000000  celldm(3)=   0.000000
     celldm(4)=   0.000000  celldm(5)=   0.000000  celldm(6)=   0.000000

     crystal axes: (cart. coord. in units of alat)
               a(1) = (   1.000000  -0.000000   0.000000 )  
               a(2) = (  -0.500000   0.866025  -0.000000 )  
               a(3) = (   0.000000   0.000000   1.580357 )  

     reciprocal axes: (cart. coord. in units 2 pi/alat)
               b(1) = (  1.000000  0.577350 -0.000000 )  
               b(2) = (  0.000000  1.154701 -0.000000 )  
               b(3) = (  0.000000  0.000000  0.632768 )  


     PseudoPot. # 1 for Mg read from file:
     /home/IITB/multiscale-mechanics/amit.k.singh/PP/LDA_ONCV/Mg.UPF
     MD5 check sum: b625b74613aebb94f78e131e92efc946
     Pseudo is Norm-conserving, Zval = 10.0
     Generated using ONCVPSP code by D. R. Hamann
     Using radial grid of 1510 points,  4 beta functions with: 
                l(1) =   0
                l(2) =   0
                l(3) =   1
                l(4) =   1

     PseudoPot. # 2 for Bi read from file:
     /home/IITB/multiscale-mechanics/amit.k.singh/PP/LDA_ONCV/Bi.UPF
     MD5 check sum: 56dda99c34bc3f5cc94f668e0bde5a74
     Pseudo is Norm-conserving + core correction, Zval = 15.0
     Generated using ONCVPSP code by D. R. Hamann
     Using radial grid of 1454 points,  6 beta functions with: 
                l(1) =   0
                l(2) =   0
                l(3) =   1
                l(4) =   1
                l(5) =   2
                l(6) =   2

     atomic species   valence    mass     pseudopotential
     Mg               10.00    24.30500     Mg( 1.00)
     Bi               15.00   208.98040     Bi( 1.00)

     12 Sym. Ops., with inversion, found


                                    s                        frac. trans.

      isym =  1     identity                                     

 cryst.   s( 1) = (     1          0          0      )
                  (     0          1          0      )
                  (     0          0          1      )

 cart.    s( 1) = (  1.0000000  0.0000000  0.0000000 )
                  (  0.0000000  1.0000000  0.0000000 )
                  (  0.0000000  0.0000000  1.0000000 )


      isym =  2     180 deg rotation - cart. axis [1,0,0]        

 cryst.   s( 2) = (     1          0          0      )
                  (    -1         -1          0      )
                  (     0          0         -1      )

 cart.    s( 2) = (  1.0000000  0.0000000  0.0000000 )
                  (  0.0000000 -1.0000000  0.0000000 )
                  (  0.0000000  0.0000000 -1.0000000 )


      isym =  3     120 deg rotation - cryst. axis [0,0,1]       

 cryst.   s( 3) = (     0          1          0      )
                  (    -1         -1          0      )
                  (     0          0          1      )

 cart.    s( 3) = ( -0.5000000 -0.8660254  0.0000000 )
                  (  0.8660254 -0.5000000  0.0000000 )
                  (  0.0000000  0.0000000  1.0000000 )


      isym =  4     120 deg rotation - cryst. axis [0,0,-1]      

 cryst.   s( 4) = (    -1         -1          0      )
                  (     1          0          0      )
                  (     0          0          1      )

 cart.    s( 4) = ( -0.5000000  0.8660254  0.0000000 )
                  ( -0.8660254 -0.5000000  0.0000000 )
                  (  0.0000000  0.0000000  1.0000000 )


      isym =  5     180 deg rotation - cryst. axis [0,1,0]       

 cryst.   s( 5) = (    -1         -1          0      )
                  (     0          1          0      )
                  (     0          0         -1      )

 cart.    s( 5) = ( -0.5000000 -0.8660254  0.0000000 )
                  ( -0.8660254  0.5000000  0.0000000 )
                  (  0.0000000  0.0000000 -1.0000000 )


      isym =  6     180 deg rotation - cryst. axis [1,1,0]       

 cryst.   s( 6) = (     0          1          0      )
                  (     1          0          0      )
                  (     0          0         -1      )

 cart.    s( 6) = ( -0.5000000  0.8660254  0.0000000 )
                  (  0.8660254  0.5000000  0.0000000 )
                  (  0.0000000  0.0000000 -1.0000000 )


      isym =  7     inversion                                    

 cryst.   s( 7) = (    -1          0          0      )
                  (     0         -1          0      )
                  (     0          0         -1      )

 cart.    s( 7) = ( -1.0000000 -0.0000000  0.0000000 )
                  (  0.0000000 -1.0000000  0.0000000 )
                  (  0.0000000  0.0000000 -1.0000000 )


      isym =  8     inv. 180 deg rotation - cart. axis [1,0,0]   

 cryst.   s( 8) = (    -1          0          0      )
                  (     1          1          0      )
                  (     0          0          1      )

 cart.    s( 8) = ( -1.0000000 -0.0000000  0.0000000 )
                  (  0.0000000  1.0000000  0.0000000 )
                  (  0.0000000  0.0000000  1.0000000 )


      isym =  9     inv. 120 deg rotation - cryst. axis [0,0,1]  

 cryst.   s( 9) = (     0         -1          0      )
                  (     1          1          0      )
                  (     0          0         -1      )

 cart.    s( 9) = (  0.5000000  0.8660254  0.0000000 )
                  ( -0.8660254  0.5000000  0.0000000 )
                  (  0.0000000  0.0000000 -1.0000000 )


      isym = 10     inv. 120 deg rotation - cryst. axis [0,0,-1] 

 cryst.   s(10) = (     1          1          0      )
                  (    -1          0          0      )
                  (     0          0         -1      )

 cart.    s(10) = (  0.5000000 -0.8660254  0.0000000 )
                  (  0.8660254  0.5000000  0.0000000 )
                  (  0.0000000  0.0000000 -1.0000000 )


      isym = 11     inv. 180 deg rotation - cryst. axis [0,1,0]  

 cryst.   s(11) = (     1          1          0      )
                  (     0         -1          0      )
                  (     0          0          1      )

 cart.    s(11) = (  0.5000000  0.8660254  0.0000000 )
                  (  0.8660254 -0.5000000  0.0000000 )
                  (  0.0000000  0.0000000  1.0000000 )


      isym = 12     inv. 180 deg rotation - cryst. axis [1,1,0]  

 cryst.   s(12) = (     0         -1          0      )
                  (    -1          0          0      )
                  (     0          0          1      )

 cart.    s(12) = (  0.5000000 -0.8660254  0.0000000 )
                  ( -0.8660254 -0.5000000  0.0000000 )
                  (  0.0000000  0.0000000  1.0000000 )


   Cartesian axes

     site n.     atom                  positions (alat units)
         1        Mg     tau(   1) = (  -0.0000000   0.5773503   0.9931272  )
         2        Mg     tau(   2) = (   0.5000000   0.2886751   0.5872300  )
         3        Mg     tau(   3) = (  -0.0000000   0.0000000   0.0000000  )
         4        Bi     tau(   4) = (  -0.0000000   0.5773503   0.3471728  )
         5        Bi     tau(   5) = (   0.5000000   0.2886751   1.2331844  )

   Crystallographic axes

     site n.     atom                  positions (cryst. coord.)
         1        Mg     tau(   1) = (  0.3333333  0.6666667  0.6284194  )
         2        Mg     tau(   2) = (  0.6666667  0.3333333  0.3715806  )
         3        Mg     tau(   3) = (  0.0000000  0.0000000  0.0000000  )
         4        Bi     tau(   4) = (  0.3333333  0.6666667  0.2196799  )
         5        Bi     tau(   5) = (  0.6666667  0.3333333  0.7803201  )

     number of k points=   141  Methfessel-Paxton smearing, width (Ry)=  0.0100
                       cart. coord. in units 2pi/alat
        k(    1) = (   0.0000000   0.0000000   0.0000000), wk =   0.0141844
        k(    2) = (   0.0250000   0.0144338   0.0000000), wk =   0.0141844
        k(    3) = (   0.0500000   0.0288675   0.0000000), wk =   0.0141844
        k(    4) = (   0.0750000   0.0433013   0.0000000), wk =   0.0141844
        k(    5) = (   0.1000000   0.0577350   0.0000000), wk =   0.0141844
        k(    6) = (   0.1250000   0.0721688   0.0000000), wk =   0.0141844
        k(    7) = (   0.1500000   0.0866025   0.0000000), wk =   0.0141844
        k(    8) = (   0.1750000   0.1010363   0.0000000), wk =   0.0141844
        k(    9) = (   0.2000000   0.1154701   0.0000000), wk =   0.0141844
        k(   10) = (   0.2250000   0.1299038   0.0000000), wk =   0.0141844
        k(   11) = (   0.2500000   0.1443376   0.0000000), wk =   0.0141844
        k(   12) = (   0.2750000   0.1587713   0.0000000), wk =   0.0141844
        k(   13) = (   0.3000000   0.1732051   0.0000000), wk =   0.0141844
        k(   14) = (   0.3250000   0.1876388   0.0000000), wk =   0.0141844
        k(   15) = (   0.3500000   0.2020726   0.0000000), wk =   0.0141844
        k(   16) = (   0.3750000   0.2165064   0.0000000), wk =   0.0141844
        k(   17) = (   0.4000000   0.2309401   0.0000000), wk =   0.0141844
        k(   18) = (   0.4250000   0.2453739   0.0000000), wk =   0.0141844
        k(   19) = (   0.4500000   0.2598076   0.0000000), wk =   0.0141844
        k(   20) = (   0.4750000   0.2742414   0.0000000), wk =   0.0141844
        k(   21) = (   0.5000000   0.2886751   0.0000000), wk =   0.0141844
        k(   22) = (   0.4916666   0.3031089   0.0000000), wk =   0.0141844
        k(   23) = (   0.4833333   0.3175426   0.0000000), wk =   0.0141844
        k(   24) = (   0.4750000   0.3319763   0.0000000), wk =   0.0141844
        k(   25) = (   0.4666666   0.3464100   0.0000000), wk =   0.0141844
        k(   26) = (   0.4583333   0.3608438   0.0000000), wk =   0.0141844
        k(   27) = (   0.4499999   0.3752775   0.0000000), wk =   0.0141844
        k(   28) = (   0.4416665   0.3897112   0.0000000), wk =   0.0141844
        k(   29) = (   0.4333332   0.4041450   0.0000000), wk =   0.0141844
        k(   30) = (   0.4249999   0.4185787   0.0000000), wk =   0.0141844
        k(   31) = (   0.4166665   0.4330124   0.0000000), wk =   0.0141844
        k(   32) = (   0.4083331   0.4474461   0.0000000), wk =   0.0141844
        k(   33) = (   0.3999998   0.4618799   0.0000000), wk =   0.0141844
        k(   34) = (   0.3916664   0.4763136   0.0000000), wk =   0.0141844
        k(   35) = (   0.3833331   0.4907473   0.0000000), wk =   0.0141844
        k(   36) = (   0.3749997   0.5051811   0.0000000), wk =   0.0141844
        k(   37) = (   0.3666664   0.5196148   0.0000000), wk =   0.0141844
        k(   38) = (   0.3583330   0.5340485   0.0000000), wk =   0.0141844
        k(   39) = (   0.3499997   0.5484822   0.0000000), wk =   0.0141844
        k(   40) = (   0.3416663   0.5629160   0.0000000), wk =   0.0141844
        k(   41) = (   0.3333330   0.5773497   0.0000000), wk =   0.0141844
        k(   42) = (   0.3166663   0.5484822   0.0000000), wk =   0.0141844
        k(   43) = (   0.2999997   0.5196147   0.0000000), wk =   0.0141844
        k(   44) = (   0.2833330   0.4907472   0.0000000), wk =   0.0141844
        k(   45) = (   0.2666664   0.4618798   0.0000000), wk =   0.0141844
        k(   46) = (   0.2499997   0.4330123   0.0000000), wk =   0.0141844
        k(   47) = (   0.2333331   0.4041448   0.0000000), wk =   0.0141844
        k(   48) = (   0.2166664   0.3752773   0.0000000), wk =   0.0141844
        k(   49) = (   0.1999998   0.3464098   0.0000000), wk =   0.0141844
        k(   50) = (   0.1833332   0.3175423   0.0000000), wk =   0.0141844
        k(   51) = (   0.1666665   0.2886748   0.0000000), wk =   0.0141844
        k(   52) = (   0.1499998   0.2598074   0.0000000), wk =   0.0141844
        k(   53) = (   0.1333332   0.2309399   0.0000000), wk =   0.0141844
        k(   54) = (   0.1166665   0.2020724   0.0000000), wk =   0.0141844
        k(   55) = (   0.0999999   0.1732049   0.0000000), wk =   0.0141844
        k(   56) = (   0.0833332   0.1443374   0.0000000), wk =   0.0141844
        k(   57) = (   0.0666666   0.1154699   0.0000000), wk =   0.0141844
        k(   58) = (   0.0499999   0.0866025   0.0000000), wk =   0.0141844
        k(   59) = (   0.0333333   0.0577350   0.0000000), wk =   0.0141844
        k(   60) = (   0.0166666   0.0288675   0.0000000), wk =   0.0141844
        k(   61) = (   0.0000000   0.0000000   0.0000000), wk =   0.0141844
        k(   62) = (   0.0000000   0.0000000   0.0158192), wk =   0.0141844
        k(   63) = (   0.0000000   0.0000000   0.0316384), wk =   0.0141844
        k(   64) = (   0.0000000   0.0000000   0.0474576), wk =   0.0141844
        k(   65) = (   0.0000000   0.0000000   0.0632768), wk =   0.0141844
        k(   66) = (   0.0000000   0.0000000   0.0790960), wk =   0.0141844
        k(   67) = (   0.0000000   0.0000000   0.0949153), wk =   0.0141844
        k(   68) = (   0.0000000   0.0000000   0.1107345), wk =   0.0141844
        k(   69) = (   0.0000000   0.0000000   0.1265537), wk =   0.0141844
        k(   70) = (   0.0000000   0.0000000   0.1423729), wk =   0.0141844
        k(   71) = (   0.0000000   0.0000000   0.1581921), wk =   0.0141844
        k(   72) = (   0.0000000   0.0000000   0.1740113), wk =   0.0141844
        k(   73) = (   0.0000000   0.0000000   0.1898305), wk =   0.0141844
        k(   74) = (   0.0000000   0.0000000   0.2056497), wk =   0.0141844
        k(   75) = (   0.0000000   0.0000000   0.2214689), wk =   0.0141844
        k(   76) = (   0.0000000   0.0000000   0.2372881), wk =   0.0141844
        k(   77) = (   0.0000000   0.0000000   0.2531073), wk =   0.0141844
        k(   78) = (   0.0000000   0.0000000   0.2689265), wk =   0.0141844
        k(   79) = (   0.0000000   0.0000000   0.2847458), wk =   0.0141844
        k(   80) = (   0.0000000   0.0000000   0.3005650), wk =   0.0141844
        k(   81) = (   0.0000000   0.0000000   0.3163842), wk =   0.0141844
        k(   82) = (   0.0250000   0.0144338   0.3163842), wk =   0.0141844
        k(   83) = (   0.0500000   0.0288675   0.3163842), wk =   0.0141844
        k(   84) = (   0.0750000   0.0433013   0.3163842), wk =   0.0141844
        k(   85) = (   0.1000000   0.0577350   0.3163842), wk =   0.0141844
        k(   86) = (   0.1250000   0.0721688   0.3163842), wk =   0.0141844
        k(   87) = (   0.1500000   0.0866025   0.3163842), wk =   0.0141844
        k(   88) = (   0.1750000   0.1010363   0.3163842), wk =   0.0141844
        k(   89) = (   0.2000000   0.1154701   0.3163842), wk =   0.0141844
        k(   90) = (   0.2250000   0.1299038   0.3163842), wk =   0.0141844
        k(   91) = (   0.2500000   0.1443376   0.3163842), wk =   0.0141844
        k(   92) = (   0.2750000   0.1587713   0.3163842), wk =   0.0141844
        k(   93) = (   0.3000000   0.1732051   0.3163842), wk =   0.0141844
        k(   94) = (   0.3250000   0.1876388   0.3163842), wk =   0.0141844
        k(   95) = (   0.3500000   0.2020726   0.3163842), wk =   0.0141844
        k(   96) = (   0.3750000   0.2165064   0.3163842), wk =   0.0141844
        k(   97) = (   0.4000000   0.2309401   0.3163842), wk =   0.0141844
        k(   98) = (   0.4250000   0.2453739   0.3163842), wk =   0.0141844
        k(   99) = (   0.4500000   0.2598076   0.3163842), wk =   0.0141844
        k(  100) = (   0.4750000   0.2742414   0.3163842), wk =   0.0141844
        k(  101) = (   0.5000000   0.2886751   0.3163842), wk =   0.0141844
        k(  102) = (   0.4916666   0.3031089   0.3163842), wk =   0.0141844
        k(  103) = (   0.4833333   0.3175426   0.3163842), wk =   0.0141844
        k(  104) = (   0.4750000   0.3319763   0.3163842), wk =   0.0141844
        k(  105) = (   0.4666666   0.3464100   0.3163842), wk =   0.0141844
        k(  106) = (   0.4583333   0.3608438   0.3163842), wk =   0.0141844
        k(  107) = (   0.4499999   0.3752775   0.3163842), wk =   0.0141844
        k(  108) = (   0.4416665   0.3897112   0.3163842), wk =   0.0141844
        k(  109) = (   0.4333332   0.4041450   0.3163842), wk =   0.0141844
        k(  110) = (   0.4249999   0.4185787   0.3163842), wk =   0.0141844
        k(  111) = (   0.4166665   0.4330124   0.3163842), wk =   0.0141844
        k(  112) = (   0.4083331   0.4474461   0.3163842), wk =   0.0141844
        k(  113) = (   0.3999998   0.4618799   0.3163842), wk =   0.0141844
        k(  114) = (   0.3916664   0.4763136   0.3163842), wk =   0.0141844
        k(  115) = (   0.3833331   0.4907473   0.3163842), wk =   0.0141844
        k(  116) = (   0.3749997   0.5051811   0.3163842), wk =   0.0141844
        k(  117) = (   0.3666664   0.5196148   0.3163842), wk =   0.0141844
        k(  118) = (   0.3583330   0.5340485   0.3163842), wk =   0.0141844
        k(  119) = (   0.3499997   0.5484822   0.3163842), wk =   0.0141844
        k(  120) = (   0.3416663   0.5629160   0.3163842), wk =   0.0141844
        k(  121) = (   0.3333330   0.5773497   0.3163842), wk =   0.0141844
        k(  122) = (   0.3166663   0.5484822   0.3163842), wk =   0.0141844
        k(  123) = (   0.2999997   0.5196147   0.3163842), wk =   0.0141844
        k(  124) = (   0.2833330   0.4907472   0.3163842), wk =   0.0141844
        k(  125) = (   0.2666664   0.4618798   0.3163842), wk =   0.0141844
        k(  126) = (   0.2499997   0.4330123   0.3163842), wk =   0.0141844
        k(  127) = (   0.2333331   0.4041448   0.3163842), wk =   0.0141844
        k(  128) = (   0.2166664   0.3752773   0.3163842), wk =   0.0141844
        k(  129) = (   0.1999998   0.3464098   0.3163842), wk =   0.0141844
        k(  130) = (   0.1833332   0.3175423   0.3163842), wk =   0.0141844
        k(  131) = (   0.1666665   0.2886748   0.3163842), wk =   0.0141844
        k(  132) = (   0.1499998   0.2598074   0.3163842), wk =   0.0141844
        k(  133) = (   0.1333332   0.2309399   0.3163842), wk =   0.0141844
        k(  134) = (   0.1166665   0.2020724   0.3163842), wk =   0.0141844
        k(  135) = (   0.0999999   0.1732049   0.3163842), wk =   0.0141844
        k(  136) = (   0.0833332   0.1443374   0.3163842), wk =   0.0141844
        k(  137) = (   0.0666666   0.1154699   0.3163842), wk =   0.0141844
        k(  138) = (   0.0499999   0.0866025   0.3163842), wk =   0.0141844
        k(  139) = (   0.0333333   0.0577350   0.3163842), wk =   0.0141844
        k(  140) = (   0.0166666   0.0288675   0.3163842), wk =   0.0141844
        k(  141) = (   0.0000000   0.0000000   0.3163842), wk =   0.0141844

                       cryst. coord.
        k(    1) = (   0.0000000   0.0000000   0.0000000), wk =   0.0141844
        k(    2) = (   0.0250000   0.0000000   0.0000000), wk =   0.0141844
        k(    3) = (   0.0500000   0.0000000   0.0000000), wk =   0.0141844
        k(    4) = (   0.0750000   0.0000000   0.0000000), wk =   0.0141844
        k(    5) = (   0.1000000   0.0000000   0.0000000), wk =   0.0141844
        k(    6) = (   0.1250000   0.0000000   0.0000000), wk =   0.0141844
        k(    7) = (   0.1500000   0.0000000   0.0000000), wk =   0.0141844
        k(    8) = (   0.1750000   0.0000000   0.0000000), wk =   0.0141844
        k(    9) = (   0.2000000   0.0000000   0.0000000), wk =   0.0141844
        k(   10) = (   0.2250000   0.0000000   0.0000000), wk =   0.0141844
        k(   11) = (   0.2500000   0.0000000   0.0000000), wk =   0.0141844
        k(   12) = (   0.2750000   0.0000000   0.0000000), wk =   0.0141844
        k(   13) = (   0.3000000   0.0000000   0.0000000), wk =   0.0141844
        k(   14) = (   0.3250000   0.0000000   0.0000000), wk =   0.0141844
        k(   15) = (   0.3500000   0.0000000   0.0000000), wk =   0.0141844
        k(   16) = (   0.3750000   0.0000000   0.0000000), wk =   0.0141844
        k(   17) = (   0.4000000   0.0000000   0.0000000), wk =   0.0141844
        k(   18) = (   0.4250000   0.0000000   0.0000000), wk =   0.0141844
        k(   19) = (   0.4500000   0.0000000   0.0000000), wk =   0.0141844
        k(   20) = (   0.4750000   0.0000000   0.0000000), wk =   0.0141844
        k(   21) = (   0.5000000   0.0000000   0.0000000), wk =   0.0141844
        k(   22) = (   0.4916666   0.0166666   0.0000000), wk =   0.0141844
        k(   23) = (   0.4833333   0.0333333   0.0000000), wk =   0.0141844
        k(   24) = (   0.4750000   0.0500000   0.0000000), wk =   0.0141844
        k(   25) = (   0.4666666   0.0666666   0.0000000), wk =   0.0141844
        k(   26) = (   0.4583333   0.0833333   0.0000000), wk =   0.0141844
        k(   27) = (   0.4499999   0.0999999   0.0000000), wk =   0.0141844
        k(   28) = (   0.4416665   0.1166665   0.0000000), wk =   0.0141844
        k(   29) = (   0.4333332   0.1333332   0.0000000), wk =   0.0141844
        k(   30) = (   0.4249999   0.1499998   0.0000000), wk =   0.0141844
        k(   31) = (   0.4166665   0.1666665   0.0000000), wk =   0.0141844
        k(   32) = (   0.4083331   0.1833332   0.0000000), wk =   0.0141844
        k(   33) = (   0.3999998   0.1999998   0.0000000), wk =   0.0141844
        k(   34) = (   0.3916664   0.2166665   0.0000000), wk =   0.0141844
        k(   35) = (   0.3833331   0.2333331   0.0000000), wk =   0.0141844
        k(   36) = (   0.3749997   0.2499997   0.0000000), wk =   0.0141844
        k(   37) = (   0.3666664   0.2666664   0.0000000), wk =   0.0141844
        k(   38) = (   0.3583330   0.2833330   0.0000000), wk =   0.0141844
        k(   39) = (   0.3499997   0.2999997   0.0000000), wk =   0.0141844
        k(   40) = (   0.3416663   0.3166664   0.0000000), wk =   0.0141844
        k(   41) = (   0.3333330   0.3333330   0.0000000), wk =   0.0141844
        k(   42) = (   0.3166663   0.3166663   0.0000000), wk =   0.0141844
        k(   43) = (   0.2999997   0.2999997   0.0000000), wk =   0.0141844
        k(   44) = (   0.2833330   0.2833330   0.0000000), wk =   0.0141844
        k(   45) = (   0.2666664   0.2666664   0.0000000), wk =   0.0141844
        k(   46) = (   0.2499997   0.2499998   0.0000000), wk =   0.0141844
        k(   47) = (   0.2333331   0.2333331   0.0000000), wk =   0.0141844
        k(   48) = (   0.2166664   0.2166665   0.0000000), wk =   0.0141844
        k(   49) = (   0.1999998   0.1999998   0.0000000), wk =   0.0141844
        k(   50) = (   0.1833332   0.1833332   0.0000000), wk =   0.0141844
        k(   51) = (   0.1666665   0.1666665   0.0000000), wk =   0.0141844
        k(   52) = (   0.1499998   0.1499998   0.0000000), wk =   0.0141844
        k(   53) = (   0.1333332   0.1333332   0.0000000), wk =   0.0141844
        k(   54) = (   0.1166665   0.1166666   0.0000000), wk =   0.0141844
        k(   55) = (   0.0999999   0.0999999   0.0000000), wk =   0.0141844
        k(   56) = (   0.0833332   0.0833332   0.0000000), wk =   0.0141844
        k(   57) = (   0.0666666   0.0666666   0.0000000), wk =   0.0141844
        k(   58) = (   0.0499999   0.0499999   0.0000000), wk =   0.0141844
        k(   59) = (   0.0333333   0.0333333   0.0000000), wk =   0.0141844
        k(   60) = (   0.0166666   0.0166666   0.0000000), wk =   0.0141844
        k(   61) = (   0.0000000   0.0000000   0.0000000), wk =   0.0141844
        k(   62) = (   0.0000000   0.0000000   0.0250000), wk =   0.0141844
        k(   63) = (   0.0000000   0.0000000   0.0500000), wk =   0.0141844
        k(   64) = (   0.0000000   0.0000000   0.0750000), wk =   0.0141844
        k(   65) = (   0.0000000   0.0000000   0.1000000), wk =   0.0141844
        k(   66) = (   0.0000000   0.0000000   0.1250000), wk =   0.0141844
        k(   67) = (   0.0000000   0.0000000   0.1500000), wk =   0.0141844
        k(   68) = (   0.0000000   0.0000000   0.1750000), wk =   0.0141844
        k(   69) = (   0.0000000   0.0000000   0.2000000), wk =   0.0141844
        k(   70) = (   0.0000000   0.0000000   0.2250000), wk =   0.0141844
        k(   71) = (   0.0000000   0.0000000   0.2500000), wk =   0.0141844
        k(   72) = (   0.0000000   0.0000000   0.2750000), wk =   0.0141844
        k(   73) = (   0.0000000   0.0000000   0.3000000), wk =   0.0141844
        k(   74) = (   0.0000000   0.0000000   0.3250000), wk =   0.0141844
        k(   75) = (   0.0000000   0.0000000   0.3500000), wk =   0.0141844
        k(   76) = (   0.0000000   0.0000000   0.3750000), wk =   0.0141844
        k(   77) = (   0.0000000   0.0000000   0.4000000), wk =   0.0141844
        k(   78) = (   0.0000000   0.0000000   0.4250000), wk =   0.0141844
        k(   79) = (   0.0000000   0.0000000   0.4500000), wk =   0.0141844
        k(   80) = (   0.0000000   0.0000000   0.4750000), wk =   0.0141844
        k(   81) = (   0.0000000   0.0000000   0.5000000), wk =   0.0141844
        k(   82) = (   0.0250000   0.0000000   0.5000000), wk =   0.0141844
        k(   83) = (   0.0500000   0.0000000   0.5000000), wk =   0.0141844
        k(   84) = (   0.0750000   0.0000000   0.5000000), wk =   0.0141844
        k(   85) = (   0.1000000   0.0000000   0.5000000), wk =   0.0141844
        k(   86) = (   0.1250000   0.0000000   0.5000000), wk =   0.0141844
        k(   87) = (   0.1500000   0.0000000   0.5000000), wk =   0.0141844
        k(   88) = (   0.1750000   0.0000000   0.5000000), wk =   0.0141844
        k(   89) = (   0.2000000   0.0000000   0.5000000), wk =   0.0141844
        k(   90) = (   0.2250000   0.0000000   0.5000000), wk =   0.0141844
        k(   91) = (   0.2500000   0.0000000   0.5000000), wk =   0.0141844
        k(   92) = (   0.2750000   0.0000000   0.5000000), wk =   0.0141844
        k(   93) = (   0.3000000   0.0000000   0.5000000), wk =   0.0141844
        k(   94) = (   0.3250000   0.0000000   0.5000000), wk =   0.0141844
        k(   95) = (   0.3500000   0.0000000   0.5000000), wk =   0.0141844
        k(   96) = (   0.3750000   0.0000000   0.5000000), wk =   0.0141844
        k(   97) = (   0.4000000   0.0000000   0.5000000), wk =   0.0141844
        k(   98) = (   0.4250000   0.0000000   0.5000000), wk =   0.0141844
        k(   99) = (   0.4500000   0.0000000   0.5000000), wk =   0.0141844
        k(  100) = (   0.4750000   0.0000000   0.5000000), wk =   0.0141844
        k(  101) = (   0.5000000   0.0000000   0.5000000), wk =   0.0141844
        k(  102) = (   0.4916666   0.0166666   0.5000000), wk =   0.0141844
        k(  103) = (   0.4833333   0.0333333   0.5000000), wk =   0.0141844
        k(  104) = (   0.4750000   0.0500000   0.5000000), wk =   0.0141844
        k(  105) = (   0.4666666   0.0666666   0.5000000), wk =   0.0141844
        k(  106) = (   0.4583333   0.0833333   0.5000000), wk =   0.0141844
        k(  107) = (   0.4499999   0.0999999   0.5000000), wk =   0.0141844
        k(  108) = (   0.4416665   0.1166665   0.5000000), wk =   0.0141844
        k(  109) = (   0.4333332   0.1333332   0.5000000), wk =   0.0141844
        k(  110) = (   0.4249999   0.1499998   0.5000000), wk =   0.0141844
        k(  111) = (   0.4166665   0.1666665   0.5000000), wk =   0.0141844
        k(  112) = (   0.4083331   0.1833332   0.5000000), wk =   0.0141844
        k(  113) = (   0.3999998   0.1999998   0.5000000), wk =   0.0141844
        k(  114) = (   0.3916664   0.2166665   0.5000000), wk =   0.0141844
        k(  115) = (   0.3833331   0.2333331   0.5000000), wk =   0.0141844
        k(  116) = (   0.3749997   0.2499997   0.5000000), wk =   0.0141844
        k(  117) = (   0.3666664   0.2666664   0.5000000), wk =   0.0141844
        k(  118) = (   0.3583330   0.2833330   0.5000000), wk =   0.0141844
        k(  119) = (   0.3499997   0.2999997   0.5000000), wk =   0.0141844
        k(  120) = (   0.3416663   0.3166664   0.5000000), wk =   0.0141844
        k(  121) = (   0.3333330   0.3333330   0.5000000), wk =   0.0141844
        k(  122) = (   0.3166663   0.3166663   0.5000000), wk =   0.0141844
        k(  123) = (   0.2999997   0.2999997   0.5000000), wk =   0.0141844
        k(  124) = (   0.2833330   0.2833330   0.5000000), wk =   0.0141844
        k(  125) = (   0.2666664   0.2666664   0.5000000), wk =   0.0141844
        k(  126) = (   0.2499997   0.2499998   0.5000000), wk =   0.0141844
        k(  127) = (   0.2333331   0.2333331   0.5000000), wk =   0.0141844
        k(  128) = (   0.2166664   0.2166665   0.5000000), wk =   0.0141844
        k(  129) = (   0.1999998   0.1999998   0.5000000), wk =   0.0141844
        k(  130) = (   0.1833332   0.1833332   0.5000000), wk =   0.0141844
        k(  131) = (   0.1666665   0.1666665   0.5000000), wk =   0.0141844
        k(  132) = (   0.1499998   0.1499998   0.5000000), wk =   0.0141844
        k(  133) = (   0.1333332   0.1333332   0.5000000), wk =   0.0141844
        k(  134) = (   0.1166665   0.1166666   0.5000000), wk =   0.0141844
        k(  135) = (   0.0999999   0.0999999   0.5000000), wk =   0.0141844
        k(  136) = (   0.0833332   0.0833332   0.5000000), wk =   0.0141844
        k(  137) = (   0.0666666   0.0666666   0.5000000), wk =   0.0141844
        k(  138) = (   0.0499999   0.0499999   0.5000000), wk =   0.0141844
        k(  139) = (   0.0333333   0.0333333   0.5000000), wk =   0.0141844
        k(  140) = (   0.0166666   0.0166666   0.5000000), wk =   0.0141844
        k(  141) = (   0.0000000   0.0000000   0.5000000), wk =   0.0141844

     Dense  grid:   246357 G-vectors     FFT dimensions: (  72,  72, 120)

     Dynamical RAM for                 wfc:       0.39 MB

     Dynamical RAM for     wfc (w. buffer):       0.39 MB

     Dynamical RAM for           str. fact:       0.13 MB

     Dynamical RAM for           local pot:       0.00 MB

     Dynamical RAM for          nlocal pot:       0.47 MB

     Dynamical RAM for                qrad:       4.06 MB

     Dynamical RAM for          rho,v,vnew:       0.43 MB

     Dynamical RAM for           G-vectors:       0.27 MB

     Dynamical RAM for          h,s,v(r/c):       0.46 MB

     Dynamical RAM for          <psi|beta>:       0.05 MB

     Dynamical RAM for                 psi:       0.78 MB

     Dynamical RAM for                hpsi:       0.78 MB

     Dynamical RAM for      wfcinit/wfcrot:       0.84 MB

     Estimated static dynamical RAM per process >       6.32 MB

     Estimated max dynamical RAM per process >       8.39 MB

     Estimated total dynamical RAM >       1.97 GB

     The potential is recalculated from file :
     ./tmp/mg3bi2.save/charge-density

     Starting wfcs are   33 randomized atomic wfcs +   17 random wfcs

     Band Structure Calculation
     Davidson diagonalization with overlap

     Computing kpt #:     1  of    36 on this pool
     total cpu time spent up to now is        3.5 secs

     Computing kpt #:     2  of    36 on this pool
     total cpu time spent up to now is        4.2 secs

     Computing kpt #:     3  of    36 on this pool
     total cpu time spent up to now is        5.9 secs

     Computing kpt #:     4  of    36 on this pool
     total cpu time spent up to now is        6.6 secs

     Computing kpt #:     5  of    36 on this pool
     total cpu time spent up to now is        7.5 secs

     Computing kpt #:     6  of    36 on this pool
     total cpu time spent up to now is        8.3 secs

     Computing kpt #:     7  of    36 on this pool
     total cpu time spent up to now is        9.2 secs

     Computing kpt #:     8  of    36 on this pool
     total cpu time spent up to now is        9.8 secs

     Computing kpt #:     9  of    36 on this pool
     total cpu time spent up to now is       10.4 secs

     Computing kpt #:    10  of    36 on this pool
     total cpu time spent up to now is       11.1 secs

     Computing kpt #:    11  of    36 on this pool
     total cpu time spent up to now is       11.7 secs

     Computing kpt #:    12  of    36 on this pool
     total cpu time spent up to now is       12.6 secs

     Computing kpt #:    13  of    36 on this pool
     total cpu time spent up to now is       13.4 secs

     Computing kpt #:    14  of    36 on this pool
     total cpu time spent up to now is       14.1 secs

     Computing kpt #:    15  of    36 on this pool
     total cpu time spent up to now is       14.9 secs

     Computing kpt #:    16  of    36 on this pool
     total cpu time spent up to now is       15.8 secs

     Computing kpt #:    17  of    36 on this pool
     total cpu time spent up to now is       16.6 secs

     Computing kpt #:    18  of    36 on this pool
     total cpu time spent up to now is       17.3 secs

     Computing kpt #:    19  of    36 on this pool
     total cpu time spent up to now is       18.0 secs

     Computing kpt #:    20  of    36 on this pool
     total cpu time spent up to now is       18.6 secs

     Computing kpt #:    21  of    36 on this pool
     total cpu time spent up to now is       19.4 secs

     Computing kpt #:    22  of    36 on this pool
     total cpu time spent up to now is       20.1 secs

     Computing kpt #:    23  of    36 on this pool
     total cpu time spent up to now is       20.7 secs

     Computing kpt #:    24  of    36 on this pool
     total cpu time spent up to now is       21.5 secs

     Computing kpt #:    25  of    36 on this pool
     total cpu time spent up to now is       22.2 secs

     Computing kpt #:    26  of    36 on this pool
     total cpu time spent up to now is       22.9 secs

     Computing kpt #:    27  of    36 on this pool
     total cpu time spent up to now is       23.6 secs

     Computing kpt #:    28  of    36 on this pool
     total cpu time spent up to now is       24.2 secs

     Computing kpt #:    29  of    36 on this pool
     total cpu time spent up to now is       24.9 secs

     Computing kpt #:    30  of    36 on this pool
     total cpu time spent up to now is       25.6 secs

     Computing kpt #:    31  of    36 on this pool
     total cpu time spent up to now is       26.2 secs

     Computing kpt #:    32  of    36 on this pool
     total cpu time spent up to now is       26.9 secs

     Computing kpt #:    33  of    36 on this pool
     total cpu time spent up to now is       27.6 secs

     Computing kpt #:    34  of    36 on this pool
     total cpu time spent up to now is       28.3 secs

     Computing kpt #:    35  of    36 on this pool
     total cpu time spent up to now is       28.9 secs

     Computing kpt #:    36  of    36 on this pool
     total cpu time spent up to now is       29.5 secs

     ethr =  1.67E-11,  avg # of iterations = 39.0

     total cpu time spent up to now is       29.5 secs

     End of band structure calculation

          k = 0.0000 0.0000 0.0000 ( 30805 PWs)   bands (ev):

   -68.2827 -67.7447 -67.7435 -35.6940 -35.6888 -35.6888 -35.1769 -35.1769
   -35.1740 -35.1711 -35.1711 -35.1685 -14.2113 -14.2113 -14.2087 -14.2087
   -14.1886 -14.1868 -14.1739 -14.1739 -14.1590 -14.1590  -3.7271  -2.7366
     2.9719   7.0105   7.0105   7.7587   7.7587   7.9801   8.0326   8.9078
    11.2120  11.2120  11.8864  12.1595  12.1595  12.5792  13.2988  13.2988
    13.3516  13.3516  13.3823  14.2412  14.7806  19.0291  19.0291  19.7873
    20.2055  20.2055

          k = 0.0250 0.0144 0.0000 ( 30827 PWs)   bands (ev):

   -68.2827 -67.7447 -67.7435 -35.6940 -35.6888 -35.6888 -35.1769 -35.1769
   -35.1740 -35.1711 -35.1711 -35.1685 -14.2113 -14.2112 -14.2087 -14.2087
   -14.1886 -14.1867 -14.1739 -14.1739 -14.1591 -14.1590  -3.7235  -2.7348
     2.9775   6.9402   6.9936   7.5459   7.7627   8.0400   8.1995   8.9571
    11.1485  11.2199  11.9150  12.1058  12.1584  12.6276  13.1502  13.2101
    13.4174  13.4537  13.4778  14.3153  14.8376  18.9180  19.0071  19.8590
    20.0310  20.1351

          k = 0.0500 0.0289 0.0000 ( 30829 PWs)   bands (ev):

   -68.2827 -67.7447 -67.7435 -35.6940 -35.6888 -35.6888 -35.1769 -35.1769
   -35.1741 -35.1711 -35.1710 -35.1685 -14.2114 -14.2112 -14.2087 -14.2086
   -14.1886 -14.1867 -14.1738 -14.1738 -14.1591 -14.1589  -3.7126  -2.7295
     2.9944   6.7545   6.9459   7.2653   7.7720   8.0484   8.4957   9.0952
    10.9987  11.2437  11.9662  11.9851  12.1508  12.7134  12.9924  13.1498
    13.4151  13.6388  13.6543  14.5074  14.9948  18.6732  18.9454  19.7527
    19.9854  20.0095

          k = 0.0750 0.0433 0.0000 ( 30833 PWs)   bands (ev):

   -68.2827 -67.7447 -67.7436 -35.6940 -35.6888 -35.6888 -35.1769 -35.1769
   -35.1742 -35.1711 -35.1709 -35.1685 -14.2116 -14.2110 -14.2087 -14.2084
   -14.1884 -14.1865 -14.1737 -14.1737 -14.1593 -14.1588  -3.6946  -2.7208
     3.0225   6.4999   6.8745   6.9929   7.7805   8.0396   8.7811   9.2924
    10.8250  11.2834  11.8043  12.0589  12.1299  12.6036  13.0700  13.1516
    13.3819  13.8529  13.8920  14.7618  15.2252  18.3826  18.8542  19.4653
    19.8768  20.0434

          k = 0.1000 0.0577 0.0000 ( 30829 PWs)   bands (ev):

   -68.2827 -67.7447 -67.7436 -35.6940 -35.6888 -35.6888 -35.1769 -35.1769
   -35.1743 -35.1711 -35.1708 -35.1685 -14.2118 -14.2109 -14.2086 -14.2082
   -14.1883 -14.1864 -14.1735 -14.1735 -14.1595 -14.1587  -3.6697  -2.7089
     3.0617   6.2126   6.7292   6.7870   7.7826   8.0086   9.0439   9.4987
    10.6804  11.3360  11.6334  12.0976  12.1450  12.4107  13.1607  13.2191
    13.4675  14.0692  14.1815  15.0449  15.5034  18.0785  18.7447  19.1801
    19.7451  20.0347

          k = 0.1250 0.0722 0.0000 ( 30837 PWs)   bands (ev):

   -68.2827 -67.7447 -67.7436 -35.6940 -35.6888 -35.6888 -35.1770 -35.1770
   -35.1744 -35.1710 -35.1707 -35.1685 -14.2121 -14.2107 -14.2086 -14.2078
   -14.1881 -14.1862 -14.1734 -14.1733 -14.1597 -14.1585  -3.6380  -2.6943
     3.1119   5.9139   6.4722   6.6897   7.7745   7.9559   9.2785   9.6350
    10.6328  11.3914  11.4760  12.0710  12.1399  12.3396  13.1235  13.3446
    13.7265  14.3003  14.4898  15.3444  15.8057  17.7747  18.6259  18.9155
    19.6166  19.9861

          k = 0.1500 0.0866 0.0000 ( 30829 PWs)   bands (ev):

   -68.2827 -67.7447 -67.7436 -35.6940 -35.6888 -35.6888 -35.1770 -35.1770
   -35.1746 -35.1710 -35.1705 -35.1684 -14.2125 -14.2104 -14.2086 -14.2075
   -14.1879 -14.1860 -14.1731 -14.1731 -14.1600 -14.1583  -3.6000  -2.6774
     3.1728   5.6155   6.2217   6.5876   7.7553   7.8822   9.4766   9.6347
    10.7315  11.3507  11.4295  11.9945  12.0796  12.4603  13.0741  13.5161
    14.0370  14.5446  14.8050  15.6512  16.1098  17.4816  18.5045  18.6912
    19.4925  19.9219

          k = 0.1750 0.1010 0.0000 ( 30850 PWs)   bands (ev):

   -68.2827 -67.7446 -67.7436 -35.6940 -35.6888 -35.6888 -35.1771 -35.1771
   -35.1747 -35.1709 -35.1704 -35.1684 -14.2129 -14.2102 -14.2085 -14.2070
   -14.1877 -14.1857 -14.1728 -14.1728 -14.1603 -14.1581  -3.5560  -2.6587
     3.2443   5.3239   5.9785   6.4842   7.7254   7.7878   9.5059   9.6562
    10.8849  11.3125  11.4299  11.8674  12.1508  12.6159  13.0563  13.7231
    14.3668  14.8007  15.1162  15.9387  16.4010  17.2146  18.3850  18.5347
    19.3736  19.8553

          k = 0.2000 0.1155 0.0000 ( 30848 PWs)   bands (ev):

   -68.2827 -67.7446 -67.7436 -35.6940 -35.6889 -35.6888 -35.1771 -35.1771
   -35.1749 -35.1709 -35.1702 -35.1684 -14.2133 -14.2100 -14.2085 -14.2065
   -14.1874 -14.1854 -14.1725 -14.1725 -14.1607 -14.1579  -3.5065  -2.6390
     3.3261   5.0432   5.7439   6.3823   7.6730   7.6866   9.3569   9.7680
    10.9113  11.3925  11.4699  11.7901  12.2877  12.7459  13.1222  13.9577
    14.7057  15.0674  15.4096  16.1283  16.6980  17.0047  18.2706  18.4784
    19.2601  19.7844

          k = 0.2250 0.1299 0.0000 ( 30828 PWs)   bands (ev):

   -68.2827 -67.7446 -67.7437 -35.6940 -35.6889 -35.6888 -35.1772 -35.1771
   -35.1750 -35.1709 -35.1701 -35.1684 -14.2137 -14.2097 -14.2085 -14.2060
   -14.1872 -14.1851 -14.1721 -14.1721 -14.1611 -14.1576  -3.4521  -2.6191
     3.4174   4.7768   5.5194   6.2838   7.5382   7.6415   9.1950   9.8369
    10.8439  11.3327  11.6919  11.8284  12.4760  12.8089  13.3152  14.2137
    15.0457  15.3435  15.6582  16.1285  16.8901  17.0546  18.1639  18.5358
    19.1521  19.7077

          k = 0.2500 0.1443 0.0000 ( 30854 PWs)   bands (ev):

   -68.2827 -67.7446 -67.7437 -35.6940 -35.6889 -35.6888 -35.1772 -35.1772
   -35.1752 -35.1708 -35.1699 -35.1684 -14.2141 -14.2095 -14.2085 -14.2055
   -14.1870 -14.1848 -14.1718 -14.1716 -14.1615 -14.1573  -3.3936  -2.5997
     3.5176   4.5272   5.3065   6.1904   7.3850   7.5923   9.0382   9.8651
    10.7567  11.2638  11.7523  12.1101  12.7019  12.8504  13.5930  14.4864
    15.3726  15.6274  15.8036  15.9942  16.9094  17.4550  18.0667  18.6722
    19.0493  19.6342

          k = 0.2750 0.1588 0.0000 ( 30846 PWs)   bands (ev):

   -68.2827 -67.7445 -67.7437 -35.6940 -35.6889 -35.6888 -35.1773 -35.1772
   -35.1753 -35.1708 -35.1697 -35.1684 -14.2146 -14.2093 -14.2085 -14.2050
   -14.1869 -14.1845 -14.1714 -14.1712 -14.1619 -14.1570  -3.3318  -2.5818
     3.6244   4.2980   5.1068   6.1032   7.2158   7.5415   8.8932   9.8632
    10.6673  11.1935  11.8214  12.4110  12.9252  12.9564  13.9144  14.7713
    15.5792  15.8063  15.9133  15.9170  17.0637  17.8866  17.9810  18.8250
    18.9510  19.5701

          k = 0.3000 0.1732 0.0000 ( 30842 PWs)   bands (ev):

   -68.2827 -67.7445 -67.7437 -35.6940 -35.6889 -35.6888 -35.1773 -35.1773
   -35.1754 -35.1707 -35.1696 -35.1684 -14.2150 -14.2091 -14.2085 -14.2045
   -14.1867 -14.1842 -14.1710 -14.1707 -14.1623 -14.1568  -3.2678  -2.5664
     3.7306   4.0974   4.9219   6.0232   7.0338   7.4912   8.7629   9.8427
    10.5815  11.1261  11.9189  12.6375  13.0989  13.2336  14.2564  15.0632
    15.4211  15.7667  16.0993  16.2091  17.3278  17.9092  18.3249  18.8564
    18.9551  19.5216

          k = 0.3250 0.1876 0.0000 ( 30834 PWs)   bands (ev):

   -68.2827 -67.7445 -67.7438 -35.6940 -35.6889 -35.6888 -35.1774 -35.1773
   -35.1756 -35.1707 -35.1695 -35.1684 -14.2154 -14.2090 -14.2085 -14.2040
   -14.1866 -14.1838 -14.1707 -14.1701 -14.1627 -14.1565  -3.2027  -2.5543
     3.7812   3.9811   4.7537   5.9512   6.8431   7.4432   8.6483   9.8130
    10.5025  11.0641  12.0377  12.7645  13.3933  13.5294  14.5898  15.1923
    15.3556  15.6497  16.3787  16.4983  17.6522  17.8541  18.7179  18.7648
    19.0772  19.5017

          k = 0.3500 0.2021 0.0000 ( 30828 PWs)   bands (ev):

   -68.2827 -67.7444 -67.7438 -35.6940 -35.6889 -35.6888 -35.1774 -35.1774
   -35.1757 -35.1707 -35.1693 -35.1684 -14.2158 -14.2088 -14.2085 -14.2035
   -14.1865 -14.1835 -14.1703 -14.1696 -14.1632 -14.1562  -3.1380  -2.5462
     3.6743   4.0508   4.6038   5.8877   6.6482   7.3989   8.5497   9.7803
    10.4323  11.0087  12.1715  12.8507  13.7444  13.8402  14.8089  15.0077
    15.5890  15.6382  16.6380  16.7756  17.8188  18.0019  18.6789  18.9063
    19.2104  19.5809

          k = 0.3750 0.2165 0.0000 ( 30830 PWs)   bands (ev):

   -68.2827 -67.7444 -67.7438 -35.6940 -35.6890 -35.6888 -35.1774 -35.1774
   -35.1758 -35.1706 -35.1692 -35.1684 -14.2161 -14.2087 -14.2085 -14.2031
   -14.1865 -14.1832 -14.1700 -14.1691 -14.1636 -14.1560  -3.0753  -2.5427
     3.5395   4.1756   4.4746   5.8333   6.4537   7.3596   8.4668   9.7485
    10.3720  10.9609  12.3158  12.9279  14.1088  14.1629  14.6768  14.9924
    15.7252  15.8936  16.8636  17.0279  17.8026  18.3472  18.6127  18.7958
    19.2080  19.5295

          k = 0.4000 0.2309 0.0000 ( 30826 PWs)   bands (ev):

   -68.2827 -67.7444 -67.7439 -35.6940 -35.6890 -35.6888 -35.1775 -35.1774
   -35.1758 -35.1706 -35.1691 -35.1684 -14.2164 -14.2086 -14.2085 -14.2028
   -14.1864 -14.1830 -14.1697 -14.1685 -14.1641 -14.1558  -3.0167  -2.5438
     3.4219   4.2986   4.3770   5.7883   6.2656   7.3263   8.3994   9.7202
    10.3223  10.9212  12.4668  13.0010  14.4371  14.4722  14.4938  14.9525
    16.0118  16.0926  17.0509  17.2428  17.7917  18.4792  18.6051  18.6491
    19.2560  19.2676

          k = 0.4250 0.2454 0.0000 ( 30820 PWs)   bands (ev):

   -68.2827 -67.7444 -67.7439 -35.6940 -35.6890 -35.6888 -35.1775 -35.1775
   -35.1759 -35.1706 -35.1690 -35.1684 -14.2166 -14.2086 -14.2085 -14.2025
   -14.1864 -14.1828 -14.1695 -14.1680 -14.1645 -14.1557  -2.9647  -2.5487
     3.3280   4.2696   4.4515   5.7531   6.0915   7.2996   8.3473   9.6970
    10.2835  10.8901  12.6205  13.0640  14.2834  14.5639  14.8286  15.0897
    16.1944  16.2999  17.1954  17.4137  17.7771  18.1625  18.7009  18.8353
    19.0680  19.4107

          k = 0.4500 0.2598 0.0000 ( 30814 PWs)   bands (ev):

   -68.2827 -67.7443 -67.7439 -35.6940 -35.6890 -35.6888 -35.1775 -35.1775
   -35.1760 -35.1706 -35.1689 -35.1685 -14.2168 -14.2086 -14.2085 -14.2023
   -14.1864 -14.1827 -14.1694 -14.1676 -14.1649 -14.1556  -2.9228  -2.5559
     3.2599   4.2093   4.5668   5.7277   5.9429   7.2802   8.3102   9.6797
    10.2558  10.8677  12.7709  13.1027  14.1308  14.5017  15.1610  15.4248
    16.1677  16.4797  17.2660  17.5015  17.8300  17.9939  18.8135  18.9101
    18.9932  19.2212

          k = 0.4750 0.2742 0.0000 ( 30796 PWs)   bands (ev):

   -68.2827 -67.7443 -67.7439 -35.6940 -35.6890 -35.6888 -35.1775 -35.1775
   -35.1760 -35.1706 -35.1688 -35.1685 -14.2169 -14.2086 -14.2084 -14.2022
   -14.1864 -14.1826 -14.1693 -14.1672 -14.1652 -14.1555  -2.8949  -2.5624
     3.2187   4.1719   4.6526   5.7125   5.8380   7.2684   8.2880   9.6692
    10.2392  10.8542  12.9064  13.0992  14.0316  14.4297  15.4811  15.7854
    16.0175  16.4498  17.2500  17.5019  17.9759  18.0924  18.7052  18.8606
    18.9353  19.2149

          k = 0.5000 0.2887 0.0000 ( 30800 PWs)   bands (ev):

   -68.2827 -67.7443 -67.7439 -35.6940 -35.6890 -35.6888 -35.1775 -35.1775
   -35.1760 -35.1706 -35.1688 -35.1685 -14.2169 -14.2086 -14.2084 -14.2022
   -14.1864 -14.1825 -14.1692 -14.1671 -14.1653 -14.1555  -2.8850  -2.5650
     3.2049   4.1592   4.6851   5.7074   5.7991   7.2644   8.2806   9.6656
    10.2336  10.8497  12.9862  13.0669  13.9976  14.4010  15.7490  15.8026
    16.0241  16.3079  17.2381  17.4944  18.0632  18.2618  18.6215  18.6319
    18.9402  19.3846

          k = 0.4917 0.3031 0.0000 ( 30802 PWs)   bands (ev):

   -68.2827 -67.7443 -67.7439 -35.6940 -35.6890 -35.6888 -35.1775 -35.1775
   -35.1760 -35.1706 -35.1688 -35.1685 -14.2169 -14.2086 -14.2084 -14.2022
   -14.1864 -14.1825 -14.1693 -14.1671 -14.1653 -14.1555  -2.8842  -2.5650
     3.2066   4.1605   4.6869   5.6910   5.8020   7.2473   8.2976   9.6873
    10.1977  10.8880  12.9882  13.0712  13.9968  14.4033  15.7037  15.7261
    16.0806  16.3406  17.2040  17.4856  18.0796  18.2798  18.4857  18.7616
    18.9713  19.3560

          k = 0.4833 0.3175 0.0000 ( 30808 PWs)   bands (ev):

   -68.2827 -67.7443 -67.7439 -35.6940 -35.6890 -35.6888 -35.1776 -35.1775
   -35.1760 -35.1706 -35.1688 -35.1685 -14.2169 -14.2085 -14.2085 -14.2022
   -14.1863 -14.1825 -14.1694 -14.1670 -14.1653 -14.1555  -2.8820  -2.5650
     3.2115   4.1644   4.6924   5.6467   5.8070   7.1980   8.3468   9.7503
    10.1099  10.9830  12.9942  13.0842  13.9945  14.4100  15.5815  15.5933
    16.1639  16.4087  17.1203  17.4598  18.0998  18.3484  18.3619  18.8541
    19.0737  19.2843

          k = 0.4750 0.3320 0.0000 ( 30808 PWs)   bands (ev):

   -68.2827 -67.7443 -67.7439 -35.6940 -35.6890 -35.6888 -35.1776 -35.1774
   -35.1760 -35.1706 -35.1688 -35.1685 -14.2168 -14.2085 -14.2085 -14.2022
   -14.1863 -14.1826 -14.1695 -14.1668 -14.1652 -14.1556  -2.8782  -2.5649
     3.2196   4.1707   4.7015   5.5809   5.8108   7.1212   8.4237   9.8498
    10.0005  11.1057  13.0042  13.1061  13.9901  14.4211  15.4183  15.4526
    16.2216  16.4634  17.0239  17.4155  18.1024  18.2736  18.4641  18.8956
    19.1976  19.2276

          k = 0.4667 0.3464 0.0000 ( 30806 PWs)   bands (ev):

   -68.2827 -67.7443 -67.7439 -35.6940 -35.6890 -35.6889 -35.1776 -35.1774
   -35.1760 -35.1706 -35.1688 -35.1685 -14.2167 -14.2085 -14.2085 -14.2023
   -14.1862 -14.1826 -14.1697 -14.1667 -14.1652 -14.1556  -2.8730  -2.5649
     3.2310   4.1795   4.7143   5.4985   5.8129   7.0232   8.5209   9.8887
     9.9794  11.2393  13.0182  13.1368  13.9831  14.4359  15.2480  15.2998
    16.2416  16.4640  16.9493  17.3475  18.1030  18.2384  18.5864  18.8888
    19.1299  19.3996

          k = 0.4583 0.3608 0.0000 ( 30792 PWs)   bands (ev):

   -68.2827 -67.7443 -67.7439 -35.6940 -35.6890 -35.6889 -35.1776 -35.1774
   -35.1761 -35.1705 -35.1688 -35.1685 -14.2165 -14.2086 -14.2084 -14.2023
   -14.1861 -14.1826 -14.1699 -14.1665 -14.1651 -14.1557  -2.8664  -2.5650
     3.2455   4.1906   4.7307   5.4037   5.8134   6.9103   8.6280   9.7881
    10.1329  11.3756  13.0364  13.1764  13.9724  14.4532  15.0763  15.1434
    16.2238  16.3937  16.9076  17.2513  18.1150  18.2655  18.6595  18.8312
    19.1341  19.5763

          k = 0.4500 0.3753 0.0000 ( 30802 PWs)   bands (ev):

   -68.2827 -67.7443 -67.7439 -35.6940 -35.6890 -35.6889 -35.1777 -35.1773
   -35.1761 -35.1705 -35.1688 -35.1685 -14.2164 -14.2087 -14.2084 -14.2024
   -14.1860 -14.1826 -14.1702 -14.1663 -14.1650 -14.1559  -2.8584  -2.5653
     3.2629   4.2038   4.7507   5.3005   5.8123   6.7875   8.7298   9.7139
    10.3046  11.5099  13.0588  13.2248  13.9565  14.4688  14.9101  14.9886
    16.1749  16.2743  16.8748  17.1303  18.1362  18.3489  18.6610  18.7341
    19.2425  19.7544

          k = 0.4417 0.3897 0.0000 ( 30786 PWs)   bands (ev):

   -68.2827 -67.7443 -67.7440 -35.6940 -35.6890 -35.6889 -35.1777 -35.1773
   -35.1761 -35.1705 -35.1688 -35.1685 -14.2162 -14.2088 -14.2083 -14.2025
   -14.1858 -14.1826 -14.1704 -14.1661 -14.1649 -14.1560  -2.8490  -2.5658
     3.2833   4.2189   4.7743   5.1922   5.8094   6.6593   8.8043   9.6869
    10.4900  11.6391  13.0856  13.2815  13.9332  14.4675  14.7662  14.8396
    16.1042  16.1321  16.8285  16.9923  18.1410  18.4701  18.6187  18.6571
    19.4144  19.9353

          k = 0.4333 0.4041 0.0000 ( 30784 PWs)   bands (ev):

   -68.2827 -67.7443 -67.7440 -35.6940 -35.6890 -35.6889 -35.1777 -35.1773
   -35.1762 -35.1705 -35.1688 -35.1685 -14.2160 -14.2089 -14.2083 -14.2025
   -14.1857 -14.1827 -14.1706 -14.1659 -14.1647 -14.1561  -2.8384  -2.5667
     3.3063   4.2357   4.8016   5.0820   5.8046   6.5290   8.8305   9.7272
    10.6854  11.7611  13.1171  13.3455  13.8994  14.4061  14.6891  14.7004
    15.9814  16.0213  16.7636  16.8444  18.0975  18.4602  18.6518  18.7103
    19.6135  20.1210

          k = 0.4250 0.4186 0.0000 ( 30788 PWs)   bands (ev):

   -68.2827 -67.7443 -67.7440 -35.6940 -35.6890 -35.6889 -35.1777 -35.1772
   -35.1762 -35.1705 -35.1688 -35.1685 -14.2157 -14.2089 -14.2082 -14.2026
   -14.1855 -14.1827 -14.1709 -14.1657 -14.1646 -14.1563  -2.8266  -2.5681
     3.3318   4.2538   4.8324   4.9722   5.7972   6.3993   8.8064   9.8357
    10.8871  11.8744  13.1534  13.4153  13.8512  14.2734  14.5754  14.6906
    15.8290  15.9343  16.6838  16.6919  18.0074  18.3221  18.8255  18.8278
    19.8255  20.3111

          k = 0.4167 0.4330 0.0000 ( 30780 PWs)   bands (ev):

   -68.2827 -67.7443 -67.7440 -35.6940 -35.6890 -35.6889 -35.1778 -35.1772
   -35.1762 -35.1705 -35.1688 -35.1685 -14.2155 -14.2090 -14.2082 -14.2027
   -14.1853 -14.1828 -14.1711 -14.1655 -14.1645 -14.1565  -2.8138  -2.5700
     3.3593   4.2727   4.8650   4.8667   5.7868   6.2725   8.7488   9.9949
    11.0923  11.9780  13.1948  13.4887  13.7855  14.1134  14.4684  14.7260
    15.6785  15.8507  16.5383  16.5948  17.8910  18.1764  18.9809  19.0231
    20.0445  20.5039

          k = 0.4083 0.4474 0.0000 ( 30790 PWs)   bands (ev):

   -68.2827 -67.7443 -67.7440 -35.6940 -35.6890 -35.6889 -35.1778 -35.1772
   -35.1763 -35.1704 -35.1687 -35.1685 -14.2153 -14.2091 -14.2082 -14.2027
   -14.1851 -14.1828 -14.1713 -14.1653 -14.1643 -14.1567  -2.7999  -2.5726
     3.3886   4.2918   4.7623   4.9046   5.7728   6.1506   8.6755  10.1869
    11.2975  12.0716  13.2413  13.5625  13.7012  13.9469  14.3808  14.7733
    15.5325  15.7776  16.3864  16.5020  17.7623  18.0292  19.1598  19.2295
    20.2674  20.5867

          k = 0.4000 0.4619 0.0000 ( 30786 PWs)   bands (ev):

   -68.2827 -67.7442 -67.7440 -35.6940 -35.6890 -35.6889 -35.1778 -35.1771
   -35.1763 -35.1704 -35.1687 -35.1685 -14.2150 -14.2092 -14.2082 -14.2028
   -14.1849 -14.1829 -14.1715 -14.1651 -14.1642 -14.1568  -2.7852  -2.5762
     3.4190   4.3105   4.6657   4.9459   5.7544   6.0353   8.5978  10.4001
    11.4992  12.1548  13.2917  13.6025  13.6330  13.7803  14.3106  14.8229
    15.3930  15.7219  16.2397  16.4096  17.6281  17.8825  19.3525  19.4429
    20.4918  20.6622

          k = 0.3917 0.4763 0.0000 ( 30790 PWs)   bands (ev):

   -68.2827 -67.7442 -67.7440 -35.6940 -35.6890 -35.6889 -35.1778 -35.1771
   -35.1764 -35.1704 -35.1687 -35.1685 -14.2148 -14.2092 -14.2082 -14.2028
   -14.1847 -14.1829 -14.1717 -14.1649 -14.1640 -14.1570  -2.7698  -2.5807
     3.4497   4.3278   4.5769   4.9907   5.7312   5.9284   8.5222  10.6277
    11.6931  12.2277  13.3362  13.5047  13.6112  13.7020  14.2534  14.8672
    15.2620  15.6874  16.1050  16.3212  17.4921  17.7376  19.5531  19.6606
    20.7126  20.7438

          k = 0.3833 0.4907 0.0000 ( 30798 PWs)   bands (ev):

   -68.2827 -67.7442 -67.7440 -35.6940 -35.6890 -35.6889 -35.1778 -35.1770
   -35.1764 -35.1704 -35.1687 -35.1685 -14.2146 -14.2093 -14.2082 -14.2029
   -14.1845 -14.1830 -14.1719 -14.1648 -14.1639 -14.1572  -2.7537  -2.5863
     3.4797   4.3427   4.4978   5.0389   5.7024   5.8315   8.4525  10.8656
    11.8741  12.2900  13.3104  13.4507  13.4785  13.7569  14.2042  14.9005
    15.1420  15.6643  16.0013  16.2394  17.3564  17.5955  19.7570  19.8801
    20.8207  20.9389

          k = 0.3750 0.5052 0.0000 ( 30802 PWs)   bands (ev):

   -68.2827 -67.7442 -67.7440 -35.6940 -35.6890 -35.6889 -35.1778 -35.1770
   -35.1765 -35.1704 -35.1687 -35.1685 -14.2145 -14.2093 -14.2083 -14.2029
   -14.1843 -14.1831 -14.1720 -14.1646 -14.1638 -14.1573  -2.7371  -2.5933
     3.5079   4.3540   4.4303   5.0905   5.6676   5.7466   8.3914  11.1111
    12.0360  12.3412  13.2047  13.2935  13.5387  13.8024  14.1593  14.9218
    15.0365  15.6138  15.9707  16.1665  17.2224  17.4569  19.9598  20.0992
    20.9088  21.1521

          k = 0.3667 0.5196 0.0000 ( 30810 PWs)   bands (ev):

   -68.2827 -67.7442 -67.7441 -35.6940 -35.6889 -35.6889 -35.1778 -35.1770
   -35.1766 -35.1704 -35.1687 -35.1685 -14.2143 -14.2093 -14.2084 -14.2029
   -14.1842 -14.1832 -14.1721 -14.1645 -14.1638 -14.1575  -2.7202  -2.6017
     3.5327   4.3606   4.3763   5.1454   5.6264   5.6751   8.3402  11.3615
    12.1713  12.3802  13.0874  13.1427  13.6205  13.8365  14.1160  14.9356
    14.9506  15.5145  16.0314  16.1044  17.0913  17.3229  20.1571  20.3153
    21.0032  21.3500

          k = 0.3583 0.5340 0.0000 ( 30802 PWs)   bands (ev):

   -68.2827 -67.7442 -67.7441 -35.6940 -35.6889 -35.6889 -35.1779 -35.1769
   -35.1766 -35.1704 -35.1687 -35.1685 -14.2142 -14.2092 -14.2085 -14.2029
   -14.1840 -14.1833 -14.1722 -14.1643 -14.1637 -14.1576  -2.7031  -2.6117
     3.5526   4.3378   4.3614   5.2036   5.5786   5.6187   8.2999  11.6140
    12.2710  12.4045  12.9765  13.0019  13.7078  13.8602  14.0726  14.8918
    14.9487  15.3905  16.0542  16.1518  16.9642  17.1946  20.3430  20.5253
    21.1032  21.5129

          k = 0.3500 0.5485 0.0000 ( 30820 PWs)   bands (ev):

   -68.2827 -67.7442 -67.7441 -35.6940 -35.6889 -35.6889 -35.1779 -35.1769
   -35.1767 -35.1704 -35.1686 -35.1686 -14.2142 -14.2091 -14.2086 -14.2029
   -14.1838 -14.1834 -14.1723 -14.1642 -14.1638 -14.1577  -2.6860  -2.6234
     3.5665   4.3162   4.3557   5.2650   5.5243   5.5784   8.2712  11.8639
    12.3245  12.4099  12.8782  12.8826  13.7908  13.8761  14.0268  14.8703
    14.9660  15.2595  16.0170  16.3059  16.8426  17.0743  20.5106  20.7254
    21.1952  21.5888

          k = 0.3417 0.5629 0.0000 ( 30830 PWs)   bands (ev):

   -68.2827 -67.7441 -67.7441 -35.6940 -35.6889 -35.6889 -35.1779 -35.1768
   -35.1767 -35.1704 -35.1686 -35.1686 -14.2141 -14.2090 -14.2087 -14.2029
   -14.1837 -14.1835 -14.1723 -14.1640 -14.1638 -14.1577  -2.6691  -2.6370
     3.5741   4.3122   4.3434   5.3296   5.4637   5.5545   8.2540  12.0992
    12.3231  12.3891  12.7885  12.8146  13.8607  13.8882  13.9765  14.8952
    14.9877  15.1305  15.9937  16.4758  16.7279  16.9688  20.6491  20.9095
    21.2027  21.5773

          k = 0.3333 0.5773 0.0000 ( 30822 PWs)   bands (ev):

   -68.2827 -67.7441 -67.7441 -35.6940 -35.6889 -35.6889 -35.1779 -35.1768
   -35.1768 -35.1704 -35.1686 -35.1686 -14.2141 -14.2089 -14.2089 -14.2029
   -14.1836 -14.1836 -14.1723 -14.1639 -14.1639 -14.1577  -2.6524  -2.6524
     3.5762   4.3252   4.3252   5.3973   5.3973   5.5467   8.2484  12.2704
    12.2704  12.3520  12.7701  12.7701  13.9011  13.9011  13.9320  14.9672
    14.9672  15.0531  15.9855  16.6224  16.6224  16.9112  20.7215  21.0661
    21.0661  21.6599

          k = 0.3167 0.5485 0.0000 ( 30822 PWs)   bands (ev):

   -68.2827 -67.7442 -67.7441 -35.6940 -35.6889 -35.6889 -35.1779 -35.1769
   -35.1767 -35.1704 -35.1686 -35.1686 -14.2141 -14.2092 -14.2085 -14.2029
   -14.1838 -14.1834 -14.1723 -14.1642 -14.1637 -14.1577  -2.6893  -2.6208
     3.5722   4.2763   4.3941   5.2494   5.5415   5.5750   8.2700  12.0788
    12.1145  12.3970  12.6950  13.0735  13.7649  13.9504  14.0097  14.7236
    15.1316  15.1932  16.0274  16.4533  16.5698  17.2028  20.3283  21.0809
    21.0830  21.4530

          k = 0.3000 0.5196 0.0000 ( 30814 PWs)   bands (ev):

   -68.2827 -67.7442 -67.7441 -35.6940 -35.6889 -35.6889 -35.1778 -35.1770
   -35.1765 -35.1704 -35.1687 -35.1685 -14.2142 -14.2095 -14.2082 -14.2030
   -14.1840 -14.1833 -14.1722 -14.1647 -14.1635 -14.1575  -2.7344  -2.5924
     3.5722   4.2231   4.5049   5.0874   5.6502   5.6974   8.3316  11.8513
    11.8764  12.3027  12.5866  13.5019  13.5890  14.0812  14.1101  14.4792
    15.2495  15.3609  16.1764  16.3923  16.4127  17.6709  19.7309  20.5776
    21.1805  21.3280

          k = 0.2833 0.4907 0.0000 ( 30818 PWs)   bands (ev):

   -68.2827 -67.7442 -67.7440 -35.6940 -35.6889 -35.6889 -35.1778 -35.1770
   -35.1764 -35.1704 -35.1688 -35.1685 -14.2143 -14.2098 -14.2078 -14.2031
   -14.1843 -14.1833 -14.1720 -14.1653 -14.1633 -14.1574  -2.7875  -2.5685
     3.5899   4.1790   4.6370   4.9236   5.7605   5.8635   8.4279  11.6224
    11.6408  12.1584  12.4438  13.4011  13.7728  14.2172  14.2352  14.4311
    15.3601  15.3846  16.2776  16.2956  16.6124  18.1688  19.1686  19.9858
    20.9544  21.0071

          k = 0.2667 0.4619 0.0000 ( 30804 PWs)   bands (ev):

   -68.2827 -67.7443 -67.7440 -35.6940 -35.6889 -35.6889 -35.1778 -35.1771
   -35.1763 -35.1704 -35.1689 -35.1684 -14.2144 -14.2101 -14.2075 -14.2032
   -14.1846 -14.1833 -14.1718 -14.1660 -14.1631 -14.1572  -2.8481  -2.5501
     3.6329   4.1541   4.6815   4.8635   5.8958   6.0389   8.5535  11.4027
    11.4196  11.9874  12.2820  13.2121  13.8819  14.0179  14.3766  14.8648
    15.2600  15.5326  16.2502  16.3405  16.9154  18.6640  18.7516  19.3942
    20.4914  20.6101

          k = 0.2500 0.4330 0.0000 ( 30798 PWs)   bands (ev):

   -68.2827 -67.7443 -67.7439 -35.6940 -35.6889 -35.6889 -35.1777 -35.1771
   -35.1762 -35.1705 -35.1690 -35.1684 -14.2144 -14.2103 -14.2072 -14.2035
   -14.1849 -14.1834 -14.1716 -14.1668 -14.1629 -14.1571  -2.9152  -2.5379
     3.7043   4.1550   4.5304   5.0149   6.0490   6.2225   8.7036  11.1969
    11.2178  11.8017  12.1136  13.0292  13.7767  13.9715  14.5134  15.1417
    15.2651  15.7045  16.3081  16.3973  16.9798  18.6856  18.8406  19.0743
    20.0834  20.1679

          k = 0.2333 0.4041 0.0000 ( 30799 PWs)   bands (ev):

   -68.2827 -67.7444 -67.7439 -35.6940 -35.6889 -35.6889 -35.1777 -35.1772
   -35.1760 -35.1705 -35.1691 -35.1684 -14.2144 -14.2105 -14.2070 -14.2038
   -14.1852 -14.1836 -14.1715 -14.1675 -14.1627 -14.1570  -2.9874  -2.5323
     3.8031   4.1856   4.3624   5.2008   6.2149   6.4124   8.8733  11.0078
    11.0391  11.6088  11.9467  12.8571  13.5835  13.9813  14.5911  15.0813
    15.5239  15.9113  16.3010  16.4611  16.8751  18.3964  18.9753  19.0655
    19.7528  20.0669

          k = 0.2167 0.3753 0.0000 ( 30785 PWs)   bands (ev):

   -68.2827 -67.7444 -67.7438 -35.6940 -35.6889 -35.6889 -35.1776 -35.1772
   -35.1759 -35.1706 -35.1692 -35.1684 -14.2144 -14.2107 -14.2068 -14.2041
   -14.1855 -14.1838 -14.1714 -14.1683 -14.1625 -14.1570  -3.0631  -2.5333
     3.9180   4.2114   4.2481   5.3979   6.3894   6.6066   9.0579  10.8373
    10.8875  11.4135  11.7864  12.6998  13.3985  13.9547  14.5428  15.1378
    15.6914  15.9330  16.1036  16.5284  16.9251  18.2084  18.6849  19.0358
    19.7498  19.9475

          k = 0.2000 0.3464 0.0000 ( 30821 PWs)   bands (ev):

   -68.2827 -67.7444 -67.7438 -35.6940 -35.6889 -35.6889 -35.1775 -35.1772
   -35.1757 -35.1706 -35.1694 -35.1684 -14.2142 -14.2108 -14.2068 -14.2046
   -14.1858 -14.1840 -14.1715 -14.1691 -14.1622 -14.1570  -3.1408  -2.5406
     3.9491   4.1807   4.3433   5.6008   6.5686   6.8023   9.2514  10.6870
    10.7675  11.2192  11.6361  12.5608  13.2255  13.8931  14.4083  15.1454
    15.6004  15.8431  16.2418  16.3156  17.0474  18.1364  18.5433  18.6575
    19.3772  20.2412

          k = 0.1833 0.3175 0.0000 ( 30805 PWs)   bands (ev):

   -68.2827 -67.7445 -67.7438 -35.6940 -35.6889 -35.6888 -35.1774 -35.1772
   -35.1756 -35.1707 -35.1695 -35.1684 -14.2140 -14.2108 -14.2067 -14.2051
   -14.1861 -14.1843 -14.1716 -14.1698 -14.1619 -14.1571  -3.2187  -2.5533
     3.8298   4.3379   4.4711   5.8056   6.7485   6.9965   9.4454  10.5577
    10.6834  11.0309  11.4983  12.4435  13.0650  13.8032  14.2233  14.7951
    15.6693  15.9058  15.9972  16.3107  17.1455  17.8103  18.2874  18.8199
    18.9707  19.9159

          k = 0.1667 0.2887 0.0000 ( 30817 PWs)   bands (ev):

   -68.2827 -67.7445 -67.7437 -35.6940 -35.6889 -35.6888 -35.1774 -35.1772
   -35.1754 -35.1707 -35.1697 -35.1684 -14.2138 -14.2109 -14.2068 -14.2056
   -14.1864 -14.1845 -14.1717 -14.1706 -14.1616 -14.1573  -3.2952  -2.5706
     3.6925   4.5504   4.6305   6.0083   6.9250   7.1853   9.6282  10.4491
    10.6258  10.8697  11.3755  12.3513  12.9167  13.6911  13.9426  14.4271
    15.4640  15.8638  16.1190  16.2262  17.1089  17.6303  18.0847  18.2735
    19.3672  19.7110

          k = 0.1500 0.2598 0.0000 ( 30809 PWs)   bands (ev):

   -68.2827 -67.7446 -67.7437 -35.6940 -35.6889 -35.6888 -35.1773 -35.1772
   -35.1752 -35.1708 -35.1699 -35.1684 -14.2135 -14.2108 -14.2069 -14.2062
   -14.1867 -14.1848 -14.1720 -14.1712 -14.1613 -14.1575  -3.3688  -2.5911
     3.5616   4.7929   4.8201   6.2045   7.0938   7.3643   9.7858  10.3577
    10.5221  10.8213  11.2710  12.2877  12.7801  13.5343  13.5596  14.1982
    15.0369  15.8771  16.0299  16.2907  16.9142  17.6503  17.7301  18.1351
    19.1369  20.1791

          k = 0.1333 0.2309 0.0000 ( 30839 PWs)   bands (ev):

   -68.2827 -67.7446 -67.7437 -35.6940 -35.6889 -35.6888 -35.1772 -35.1771
   -35.1751 -35.1708 -35.1700 -35.1684 -14.2132 -14.2108 -14.2071 -14.2067
   -14.1871 -14.1851 -14.1723 -14.1718 -14.1609 -14.1577  -3.4381  -2.6137
     3.4415   5.0378   5.0602   6.3897   7.2503   7.5292   9.9069  10.2744
    10.3491  10.9178  11.1910  12.2551  12.6541  13.0909  13.4089  14.0460
    14.6552  15.4718  15.9958  16.3533  16.8254  17.2114  17.7908  18.3138
    18.8860  20.5655

          k = 0.1167 0.2021 0.0000 ( 30829 PWs)   bands (ev):

   -68.2827 -67.7446 -67.7436 -35.6940 -35.6889 -35.6888 -35.1771 -35.1771
   -35.1749 -35.1709 -35.1702 -35.1684 -14.2129 -14.2108 -14.2073 -14.2073
   -14.1874 -14.1855 -14.1726 -14.1723 -14.1606 -14.1580  -3.5019  -2.6371
     3.3337   5.2810   5.3491   6.5594   7.3900   7.6759   9.9512  10.1817
    10.2039  11.0983  11.1453  12.2502  12.5370  12.6833  13.2404  13.9261
    14.3374  15.0275  15.6937  16.3193  16.7001  16.9983  17.9836  18.5486
    18.7519  20.5173

          k = 0.1000 0.1732 0.0000 ( 30829 PWs)   bands (ev):

   -68.2827 -67.7446 -67.7436 -35.6940 -35.6888 -35.6888 -35.1771 -35.1770
   -35.1747 -35.1709 -35.1704 -35.1684 -14.2126 -14.2107 -14.2077 -14.2076
   -14.1877 -14.1857 -14.1729 -14.1728 -14.1602 -14.1582  -3.5592  -2.6600
     3.2390   5.5464   5.6565   6.7099   7.5093   7.8014   9.7953  10.0559
    10.2398  11.1440  11.3254  12.2024  12.4174  12.4256  13.0647  13.8259
    14.0898  14.5785  15.2948  16.1701  16.2195  17.2686  18.1943  18.7619
    18.8094  20.4247

          k = 0.0833 0.1443 0.0000 ( 30851 PWs)   bands (ev):

   -68.2827 -67.7447 -67.7436 -35.6940 -35.6888 -35.6888 -35.1770 -35.1770
   -35.1745 -35.1710 -35.1706 -35.1684 -14.2122 -14.2108 -14.2081 -14.2078
   -14.1879 -14.1860 -14.1732 -14.1731 -14.1599 -14.1584  -3.6091  -2.6813
     3.1581   5.8298   5.9788   6.8397   7.6055   7.9036   9.5406   9.8787
    10.3703  11.1867  11.5725  11.9895  12.3160  12.4438  12.9060  13.7410
    13.9024  14.1439  14.8784  15.7600  15.9276  17.5808  18.4047  18.8984
    19.0831  20.3394

          k = 0.0667 0.1155 0.0000 ( 30839 PWs)   bands (ev):

   -68.2827 -67.7447 -67.7436 -35.6940 -35.6888 -35.6888 -35.1770 -35.1770
   -35.1744 -35.1710 -35.1707 -35.1685 -14.2119 -14.2109 -14.2084 -14.2081
   -14.1882 -14.1863 -14.1734 -14.1734 -14.1596 -14.1586  -3.6509  -2.7001
     3.0915   6.1247   6.3093   6.9510   7.6782   7.9808   9.2486   9.6506
    10.5397  11.2461  11.8123  11.8397  12.2060  12.5646  12.7953  13.6687
    13.7038  13.7936  14.4701  15.3285  15.6343  17.9129  18.6025  19.1216
    19.3603  20.2574

          k = 0.0500 0.0866 0.0000 ( 30819 PWs)   bands (ev):

   -68.2827 -67.7447 -67.7436 -35.6940 -35.6888 -35.6888 -35.1769 -35.1769
   -35.1742 -35.1711 -35.1709 -35.1685 -14.2117 -14.2110 -14.2086 -14.2084
   -14.1884 -14.1865 -14.1736 -14.1736 -14.1594 -14.1588  -3.6839  -2.7156
     3.0393   6.4208   6.6308   7.0583   7.7278   8.0304   8.9299   9.3945
    10.7365  11.2693  11.8331  12.0072  12.0991  12.7295  12.7558  13.3619
    13.6055  13.6671  14.0855  14.9334  15.3310  18.2538  18.7763  19.3961
    19.6298  20.1701

          k = 0.0333 0.0577 0.0000 ( 30811 PWs)   bands (ev):

   -68.2827 -67.7447 -67.7436 -35.6940 -35.6888 -35.6888 -35.1769 -35.1769
   -35.1741 -35.1711 -35.1710 -35.1685 -14.2115 -14.2111 -14.2087 -14.2086
   -14.1885 -14.1866 -14.1738 -14.1738 -14.1592 -14.1589  -3.7078  -2.7271
     3.0019   6.6990   6.8797   7.2217   7.7553   8.0497   8.5918   9.1513
    10.9451  11.2482  11.9477  12.0026  12.1192  12.7463  12.9255  13.1390
    13.5433  13.5678  13.7442  14.5914  15.0563  18.5898  18.9127  19.6960
    19.8683  20.0668

          k = 0.0167 0.0289 0.0000 ( 30819 PWs)   bands (ev):

   -68.2827 -67.7447 -67.7435 -35.6940 -35.6888 -35.6888 -35.1769 -35.1769
   -35.1740 -35.1711 -35.1711 -35.1685 -14.2113 -14.2112 -14.2087 -14.2087
   -14.1886 -14.1867 -14.1738 -14.1738 -14.1591 -14.1590  -3.7223  -2.7342
     2.9794   6.9197   6.9856   7.5046   7.7618   8.0422   8.2453   8.9732
    11.1294  11.2222  11.9235  12.0911  12.1557  12.6423  13.1339  13.1768
    13.4616  13.4632  13.4838  14.3391  14.8559  18.8861  18.9994  19.8774
    19.9948  20.1114

          k = 0.0000 0.0000 0.0000 ( 30805 PWs)   bands (ev):

   -68.2827 -67.7447 -67.7435 -35.6940 -35.6888 -35.6888 -35.1769 -35.1769
   -35.1740 -35.1711 -35.1711 -35.1685 -14.2113 -14.2113 -14.2087 -14.2087
   -14.1886 -14.1868 -14.1739 -14.1739 -14.1590 -14.1590  -3.7271  -2.7366
     2.9719   7.0105   7.0105   7.7587   7.7587   7.9801   8.0326   8.9078
    11.2120  11.2120  11.8864  12.1595  12.1595  12.5792  13.2988  13.2988
    13.3516  13.3516  13.3823  14.2412  14.7806  19.0291  19.0291  19.7873
    20.2055  20.2055

          k = 0.0000 0.0000 0.0158 ( 30823 PWs)   bands (ev):

   -68.2827 -67.7447 -67.7435 -35.6940 -35.6888 -35.6888 -35.1769 -35.1769
   -35.1740 -35.1711 -35.1711 -35.1685 -14.2113 -14.2113 -14.2087 -14.2087
   -14.1887 -14.1868 -14.1739 -14.1739 -14.1590 -14.1590  -3.7261  -2.7385
     2.9768   7.0115   7.0115   7.7576   7.7576   7.8478   8.1570   8.9127
    11.2070  11.2070  11.8870  12.1612  12.1612  12.5642  13.2448  13.2448
    13.3942  13.4182  13.4182  14.2402  14.7963  18.9901  18.9901  19.7130
    20.1364  20.1364

          k = 0.0000 0.0000 0.0316 ( 30829 PWs)   bands (ev):

   -68.2827 -67.7447 -67.7435 -35.6940 -35.6888 -35.6888 -35.1769 -35.1769
   -35.1740 -35.1711 -35.1711 -35.1685 -14.2113 -14.2113 -14.2087 -14.2087
   -14.1887 -14.1867 -14.1739 -14.1739 -14.1590 -14.1590  -3.7229  -2.7440
     2.9913   7.0147   7.0147   7.6866   7.7541   7.7541   8.2939   8.9281
    11.1925  11.1925  11.8881  12.1649  12.1649  12.5242  13.1862  13.1862
    13.4235  13.5156  13.5156  14.2425  14.8399  18.8836  18.8836  19.5511
    19.9863  19.9863

          k = 0.0000 0.0000 0.0475 ( 30841 PWs)   bands (ev):

   -68.2827 -67.7447 -67.7435 -35.6940 -35.6888 -35.6888 -35.1769 -35.1769
   -35.1740 -35.1711 -35.1711 -35.1685 -14.2114 -14.2114 -14.2086 -14.2086
   -14.1887 -14.1867 -14.1739 -14.1739 -14.1590 -14.1590  -3.7177  -2.7531
     3.0155   7.0200   7.0200   7.5202   7.7482   7.7482   8.4183   8.9553
    11.1701  11.1701  11.8881  12.1674  12.1674  12.4707  13.1455  13.1455
    13.4552  13.6229  13.6229  14.2608  14.9037  18.7314  18.7314  19.3611
    19.8007  19.8007

          k = 0.0000 0.0000 0.0633 ( 30841 PWs)   bands (ev):

   -68.2827 -67.7447 -67.7435 -35.6940 -35.6888 -35.6888 -35.1769 -35.1769
   -35.1740 -35.1711 -35.1711 -35.1685 -14.2115 -14.2115 -14.2085 -14.2085
   -14.1887 -14.1867 -14.1739 -14.1739 -14.1590 -14.1590  -3.7104  -2.7656
     3.0491   7.0274   7.0274   7.3502   7.7401   7.7401   8.5261   8.9958
    11.1416  11.1416  11.8841  12.1644  12.1644  12.4156  13.1270  13.1270
    13.4754  13.7379  13.7379  14.3069  14.9799  18.5520  18.5520  19.1641
    19.5971  19.5971

          k = 0.0000 0.0000 0.0791 ( 30841 PWs)   bands (ev):

   -68.2827 -67.7447 -67.7435 -35.6940 -35.6888 -35.6888 -35.1769 -35.1769
   -35.1740 -35.1711 -35.1711 -35.1685 -14.2116 -14.2116 -14.2084 -14.2084
   -14.1887 -14.1866 -14.1739 -14.1739 -14.1591 -14.1591  -3.7011  -2.7814
     3.0920   7.0368   7.0368   7.1777   7.7297   7.7297   8.6153   9.0503
    11.1091  11.1091  11.8722  12.1524  12.1524  12.3692  13.1333  13.1333
    13.4780  13.8596  13.8596  14.3858  15.0624  18.3573  18.3573  18.9691
    19.3844  19.3844

          k = 0.0000 0.0000 0.0949 ( 30847 PWs)   bands (ev):

   -68.2827 -67.7447 -67.7435 -35.6940 -35.6888 -35.6888 -35.1769 -35.1769
   -35.1740 -35.1711 -35.1711 -35.1685 -14.2117 -14.2117 -14.2083 -14.2083
   -14.1888 -14.1866 -14.1739 -14.1739 -14.1591 -14.1591  -3.6899  -2.8001
     3.1439   7.0035   7.0483   7.0483   7.7171   7.7171   8.6867   9.1162
    11.0746  11.0746  11.8493  12.1302  12.1302  12.3382  13.1643  13.1643
    13.4660  13.9871  13.9871  14.4943  15.1460  18.1546  18.1546  18.7816
    19.1673  19.1673

          k = 0.0000 0.0000 0.1107 ( 30865 PWs)   bands (ev):

   -68.2827 -67.7447 -67.7435 -35.6940 -35.6888 -35.6888 -35.1769 -35.1769
   -35.1740 -35.1711 -35.1711 -35.1685 -14.2118 -14.2118 -14.2081 -14.2081
   -14.1888 -14.1865 -14.1739 -14.1739 -14.1591 -14.1591  -3.6767  -2.8217
     3.2046   6.8284   7.0617   7.0617   7.7023   7.7023   8.7444   9.1881
    11.0395  11.0395  11.8154  12.0984  12.0984  12.3244  13.2182  13.2182
    13.4469  14.1199  14.1199  14.6255  15.2263  17.9480  17.9480  18.6061
    18.9485  18.9485

          k = 0.0000 0.0000 0.1266 ( 30859 PWs)   bands (ev):

   -68.2827 -67.7447 -67.7435 -35.6940 -35.6888 -35.6888 -35.1769 -35.1769
   -35.1740 -35.1711 -35.1711 -35.1685 -14.2119 -14.2119 -14.2080 -14.2080
   -14.1889 -14.1865 -14.1739 -14.1739 -14.1591 -14.1591  -3.6618  -2.8456
     3.2738   6.6529   7.0770   7.0770   7.6855   7.6855   8.7931   9.2597
    11.0051  11.0051  11.7737  12.0595  12.0595  12.3246  13.2915  13.2915
    13.4288  14.2576  14.2576  14.7723  15.2989  17.7404  17.7404  18.4473
    18.7296  18.7296

          k = 0.0000 0.0000 0.1424 ( 30883 PWs)   bands (ev):

   -68.2827 -67.7447 -67.7435 -35.6940 -35.6888 -35.6888 -35.1769 -35.1769
   -35.1740 -35.1711 -35.1711 -35.1685 -14.2121 -14.2121 -14.2079 -14.2079
   -14.1889 -14.1864 -14.1739 -14.1739 -14.1591 -14.1591  -3.6451  -2.8717
     3.3511   6.4775   7.0942   7.0942   7.6667   7.6667   8.8369   9.3259
    10.9723  10.9723  11.7295  12.0161  12.0161  12.3323  13.3805  13.3805
    13.4191  14.3998  14.3998  14.9284  15.3598  17.5337  17.5337  18.3102
    18.5117  18.5117

          k = 0.0000 0.0000 0.1582 ( 30871 PWs)   bands (ev):

   -68.2827 -67.7447 -67.7435 -35.6940 -35.6888 -35.6888 -35.1769 -35.1769
   -35.1740 -35.1711 -35.1711 -35.1685 -14.2122 -14.2122 -14.2077 -14.2077
   -14.1890 -14.1864 -14.1739 -14.1739 -14.1591 -14.1591  -3.6269  -2.8995
     3.4362   6.3028   7.1131   7.1131   7.6461   7.6461   8.8784   9.3831
    10.9417  10.9417  11.6870  11.9708  11.9708  12.3414  13.4236  13.4821
    13.4821  14.5461  14.5461  15.0868  15.4070  17.3293  17.3293  18.2000
    18.2953  18.2953

          k = 0.0000 0.0000 0.1740 ( 30853 PWs)   bands (ev):

   -68.2827 -67.7447 -67.7435 -35.6940 -35.6888 -35.6888 -35.1769 -35.1769
   -35.1740 -35.1711 -35.1711 -35.1685 -14.2123 -14.2123 -14.2076 -14.2076
   -14.1890 -14.1863 -14.1739 -14.1739 -14.1592 -14.1592  -3.6073  -2.9285
     3.5287   6.1292   7.1337   7.1337   7.6237   7.6237   8.9190   9.4290
    10.9137  10.9137  11.6495  11.9254  11.9254  12.3465  13.4471  13.5932
    13.5932  14.6964  14.6964  15.2320  15.4477  17.1287  17.1287  18.0811
    18.0811  18.1215

          k = 0.0000 0.0000 0.1898 ( 30877 PWs)   bands (ev):

   -68.2827 -67.7447 -67.7435 -35.6940 -35.6888 -35.6888 -35.1769 -35.1769
   -35.1740 -35.1711 -35.1711 -35.1685 -14.2124 -14.2124 -14.2075 -14.2075
   -14.1890 -14.1863 -14.1739 -14.1739 -14.1592 -14.1592  -3.5866  -2.9584
     3.6283   5.9572   7.1558   7.1558   7.5998   7.5998   8.9595   9.4627
    10.8887  10.8887  11.6189  11.8816  11.8816  12.3447  13.4920  13.7116
    13.7116  14.8502  14.8502  15.3144  15.5247  16.9330  16.9330  17.8693
    17.8693  18.0782

          k = 0.0000 0.0000 0.2056 ( 30866 PWs)   bands (ev):

   -68.2827 -67.7447 -67.7435 -35.6940 -35.6888 -35.6888 -35.1769 -35.1769
   -35.1740 -35.1711 -35.1711 -35.1685 -14.2125 -14.2125 -14.2074 -14.2074
   -14.1891 -14.1863 -14.1739 -14.1739 -14.1592 -14.1592  -3.5651  -2.9886
     3.7345   5.7871   7.1794   7.1794   7.5745   7.5745   9.0004   9.4840
    10.8668  10.8668  11.5958  11.8407  11.8407  12.3351  13.5586  13.8348
    13.8348  15.0070  15.0070  15.3063  15.6616  16.7441  16.7441  17.6602
    17.6602  18.0712

          k = 0.0000 0.0000 0.2215 ( 30896 PWs)   bands (ev):

   -68.2827 -67.7447 -67.7435 -35.6940 -35.6888 -35.6888 -35.1769 -35.1769
   -35.1740 -35.1711 -35.1711 -35.1685 -14.2125 -14.2125 -14.2073 -14.2073
   -14.1891 -14.1862 -14.1739 -14.1739 -14.1592 -14.1592  -3.5431  -3.0184
     3.8468   5.6195   7.2043   7.2043   7.5479   7.5479   9.0416   9.4935
    10.8480  10.8480  11.5802  11.8035  11.8035  12.3189  13.6453  13.9603
    13.9603  15.1661  15.1661  15.2482  15.8155  16.5643  16.5643  17.4542
    17.4542  18.0983

          k = 0.0000 0.0000 0.2373 ( 30884 PWs)   bands (ev):

   -68.2827 -67.7447 -67.7435 -35.6940 -35.6888 -35.6888 -35.1769 -35.1769
   -35.1740 -35.1711 -35.1711 -35.1685 -14.2126 -14.2126 -14.2072 -14.2072
   -14.1891 -14.1862 -14.1739 -14.1739 -14.1592 -14.1592  -3.5213  -3.0472
     3.9648   5.4548   7.2304   7.2304   7.5203   7.5203   9.0826   9.4925
    10.8324  10.8324  11.5712  11.7708  11.7708  12.2984  13.7492  14.0852
    14.0852  15.1599  15.3260  15.3260  15.9663  16.3971  16.3971  17.2514
    17.2514  18.1540

          k = 0.0000 0.0000 0.2531 ( 30914 PWs)   bands (ev):

   -68.2827 -67.7447 -67.7435 -35.6940 -35.6888 -35.6888 -35.1769 -35.1769
   -35.1740 -35.1711 -35.1711 -35.1685 -14.2127 -14.2127 -14.2072 -14.2072
   -14.1891 -14.1861 -14.1739 -14.1739 -14.1592 -14.1592  -3.5005  -3.0740
     4.0876   5.2938   7.2576   7.2576   7.4918   7.4918   9.1228   9.4830
    10.8198  10.8198  11.5674  11.7433  11.7433  12.2764  13.8667  14.2056
    14.2056  15.0503  15.4832  15.4832  16.1054  16.2494  16.2494  17.0523
    17.0523  18.2289

          k = 0.0000 0.0000 0.2689 ( 30908 PWs)   bands (ev):

   -68.2827 -67.7447 -67.7435 -35.6940 -35.6888 -35.6888 -35.1769 -35.1769
   -35.1740 -35.1711 -35.1711 -35.1685 -14.2127 -14.2127 -14.2071 -14.2071
   -14.1892 -14.1861 -14.1738 -14.1738 -14.1592 -14.1592  -3.4816  -3.0976
     4.2140   5.1376   7.2856   7.2856   7.4627   7.4627   9.1607   9.4674
    10.8102  10.8102  11.5672  11.7214  11.7214  12.2557  13.9935  14.3157
    14.3157  14.9268  15.6277  15.6277  16.1362  16.1362  16.2255  16.8574
    16.8574  18.3090

          k = 0.0000 0.0000 0.2847 ( 30920 PWs)   bands (ev):

   -68.2827 -67.7447 -67.7435 -35.6940 -35.6888 -35.6888 -35.1769 -35.1769
   -35.1740 -35.1711 -35.1711 -35.1685 -14.2127 -14.2127 -14.2071 -14.2071
   -14.1892 -14.1861 -14.1738 -14.1738 -14.1593 -14.1593  -3.4663  -3.1164
     4.3414   4.9891   7.3144   7.3144   7.4331   7.4331   9.1940   9.4493
    10.8034  10.8034  11.5687  11.7055  11.7055  12.2389  14.1234  14.4074
    14.4074  14.7976  15.7286  15.7286  16.0954  16.0954  16.3193  16.6675
    16.6675  18.3758

          k = 0.0000 0.0000 0.3006 ( 30968 PWs)   bands (ev):

   -68.2827 -67.7447 -67.7435 -35.6940 -35.6888 -35.6888 -35.1769 -35.1769
   -35.1740 -35.1711 -35.1711 -35.1685 -14.2128 -14.2128 -14.2071 -14.2071
   -14.1892 -14.1861 -14.1738 -14.1738 -14.1593 -14.1593  -3.4561  -3.1288
     4.4602   4.8576   7.3436   7.3436   7.4034   7.4034   9.2183   9.4338
    10.7994  10.7994  11.5703  11.6959  11.6959  12.2279  14.2427  14.4697
    14.4697  14.6781  15.7534  15.7534  16.1683  16.1683  16.3794  16.4846
    16.4846  18.4147

          k = 0.0000 0.0000 0.3164 ( 31016 PWs)   bands (ev):

   -68.2827 -67.7447 -67.7435 -35.6940 -35.6888 -35.6888 -35.1769 -35.1769
   -35.1740 -35.1711 -35.1711 -35.1685 -14.2128 -14.2128 -14.2070 -14.2070
   -14.1892 -14.1861 -14.1738 -14.1738 -14.1593 -14.1593  -3.4525  -3.1331
     4.5240   4.7895   7.3706   7.3706   7.3763   7.3763   9.2275   9.4274
    10.7980  10.7981  11.5710  11.6926  11.6926  12.2241  14.3032  14.4921
    14.4921  14.6175  15.7499  15.7499  16.3111  16.3111  16.3153  16.3153
    16.4002  18.4262

          k = 0.0250 0.0144 0.3164 ( 30918 PWs)   bands (ev):

   -68.2827 -67.7447 -67.7435 -35.6940 -35.6888 -35.6888 -35.1769 -35.1769
   -35.1740 -35.1711 -35.1711 -35.1685 -14.2128 -14.2127 -14.2071 -14.2070
   -14.1892 -14.1861 -14.1738 -14.1738 -14.1593 -14.1592  -3.4492  -3.1304
     4.5223   4.7875   7.3046   7.3409   7.3501   7.3866   9.2811   9.4758
    10.7148  10.8166  11.6163  11.6789  11.7123  12.2966  14.2703  14.3022
    14.4707  14.7885  15.6986  15.7178  16.1830  16.3384  16.3699  16.3841
    16.5754  18.4326

          k = 0.0500 0.0289 0.3164 ( 30868 PWs)   bands (ev):

   -68.2827 -67.7447 -67.7435 -35.6940 -35.6888 -35.6888 -35.1769 -35.1769
   -35.1741 -35.1711 -35.1710 -35.1685 -14.2128 -14.2126 -14.2071 -14.2070
   -14.1891 -14.1860 -14.1737 -14.1737 -14.1594 -14.1592  -3.4394  -3.1225
     4.5166   4.7808   7.1626   7.2458   7.2907   7.3800   9.4227   9.6023
    10.5495  10.8712  11.4642  11.7708  11.9200  12.4369  13.9974  14.2631
    14.4107  14.9508  15.5848  15.6363  16.0969  16.4318  16.5028  16.5346
    16.8222  18.4517

          k = 0.0750 0.0433 0.3164 ( 30870 PWs)   bands (ev):

   -68.2827 -67.7447 -67.7436 -35.6940 -35.6888 -35.6888 -35.1769 -35.1769
   -35.1742 -35.1711 -35.1709 -35.1685 -14.2129 -14.2124 -14.2072 -14.2068
   -14.1890 -14.1859 -14.1736 -14.1736 -14.1595 -14.1591  -3.4232  -3.1094
     4.5055   4.7675   6.9798   7.0907   7.2252   7.3552   9.6061   9.7516
    10.4145  10.9593  11.3075  11.8662  12.2141  12.5616  13.7042  14.2432
    14.3231  15.0412  15.4538  15.5231  16.1169  16.5767  16.6749  16.7258
    17.0991  18.4843

          k = 0.1000 0.0577 0.3164 ( 30854 PWs)   bands (ev):

   -68.2827 -67.7447 -67.7436 -35.6940 -35.6888 -35.6888 -35.1769 -35.1769
   -35.1743 -35.1711 -35.1708 -35.1685 -14.2130 -14.2121 -14.2073 -14.2067
   -14.1889 -14.1858 -14.1734 -14.1734 -14.1596 -14.1590  -3.4008  -3.0913
     4.4868   4.7445   6.7846   6.9127   7.1476   7.3146   9.7222   9.8695
    10.4307  11.0771  11.1851  11.9959  12.4953  12.6554  13.4165  14.2191
    14.2631  15.0655  15.3240  15.4103  16.2254  16.7613  16.8670  16.9403
    17.3979  18.5320

          k = 0.1250 0.0722 0.3164 ( 30856 PWs)   bands (ev):

   -68.2827 -67.7447 -67.7436 -35.6940 -35.6888 -35.6888 -35.1770 -35.1770
   -35.1744 -35.1710 -35.1707 -35.1685 -14.2132 -14.2117 -14.2074 -14.2065
   -14.1887 -14.1856 -14.1732 -14.1732 -14.1599 -14.1589  -3.3725  -3.0687
     4.4569   4.7079   6.5973   6.7328   7.0614   7.2611   9.6358  10.0046
    10.6228  11.1386  11.2197  12.1570  12.5334  12.8759  13.1839  14.1082
    14.3303  15.0299  15.2028  15.3558  16.3810  16.9763  17.0727  17.1718
    17.7085  18.5981

          k = 0.1500 0.0866 0.3164 ( 30836 PWs)   bands (ev):

   -68.2827 -67.7447 -67.7436 -35.6940 -35.6888 -35.6888 -35.1770 -35.1770
   -35.1746 -35.1710 -35.1705 -35.1684 -14.2134 -14.2113 -14.2075 -14.2063
   -14.1885 -14.1854 -14.1729 -14.1729 -14.1601 -14.1588  -3.3387  -3.0419
     4.4110   4.6538   6.4309   6.5666   6.9697   7.1980   9.4782  10.0684
    10.8814  11.2122  11.3818  12.3459  12.4157  12.8191  13.3341  13.9975
    14.4196  14.9380  15.0942  15.4160  16.5552  17.2150  17.2900  17.4173
    18.0168  18.6899

          k = 0.1750 0.1010 0.3164 ( 30820 PWs)   bands (ev):

   -68.2827 -67.7446 -67.7436 -35.6940 -35.6888 -35.6888 -35.1771 -35.1771
   -35.1747 -35.1709 -35.1704 -35.1684 -14.2136 -14.2109 -14.2077 -14.2061
   -14.1884 -14.1852 -14.1726 -14.1725 -14.1604 -14.1586  -3.2998  -3.0115
     4.3441   4.5805   6.2923   6.4274   6.8755   7.1285   9.3103  10.0415
    11.1375  11.3980  11.5573  12.2397  12.5596  12.6312  13.6547  13.8922
    14.5093  14.8258  15.0013  15.5929  16.7360  17.4730  17.5170  17.6757
    18.3016  18.8226

          k = 0.2000 0.1155 0.3164 ( 30820 PWs)   bands (ev):

   -68.2827 -67.7446 -67.7436 -35.6940 -35.6889 -35.6888 -35.1771 -35.1771
   -35.1749 -35.1709 -35.1702 -35.1684 -14.2138 -14.2104 -14.2079 -14.2058
   -14.1882 -14.1850 -14.1722 -14.1721 -14.1607 -14.1584  -3.2564  -2.9780
     4.2521   4.4890   6.1821   6.3258   6.7814   7.0555   9.1479   9.9609
    11.3485  11.5781  11.7396  12.1077  12.5051  12.7943  13.7972  13.9244
    14.6054  14.7514  14.9275  15.8613  16.9212  17.7469  17.7496  17.9459
    18.5370  19.0167

          k = 0.2250 0.1299 0.3164 ( 30834 PWs)   bands (ev):

   -68.2827 -67.7446 -67.7437 -35.6940 -35.6889 -35.6888 -35.1772 -35.1771
   -35.1750 -35.1709 -35.1701 -35.1684 -14.2141 -14.2099 -14.2081 -14.2056
   -14.1880 -14.1847 -14.1718 -14.1717 -14.1610 -14.1582  -3.2092  -2.9423
     4.1346   4.3825   6.0988   6.2658   6.6893   6.9815   8.9967   9.8594
    11.4555  11.5182  11.9210  12.2293  12.5085  13.0451  13.7182  14.0694
    14.5673  14.8768  14.9388  16.1890  17.1154  17.9814  18.0344  18.2271
    18.7223  19.2684

          k = 0.2500 0.1443 0.3164 ( 30810 PWs)   bands (ev):

   -68.2827 -67.7446 -67.7437 -35.6940 -35.6889 -35.6888 -35.1772 -35.1772
   -35.1752 -35.1708 -35.1699 -35.1684 -14.2143 -14.2094 -14.2083 -14.2054
   -14.1879 -14.1844 -14.1714 -14.1712 -14.1614 -14.1580  -3.1591  -2.9052
     3.9968   4.2647   6.0419   6.2428   6.6010   6.9086   8.8593   9.7539
    11.2988  11.4217  12.0927  12.5041  12.6840  13.2976  13.6703  14.1119
    14.4864  14.8544  15.2916  16.5462  17.3290  18.2037  18.3334  18.5179
    18.8852  19.5429

          k = 0.2750 0.1588 0.3164 ( 30810 PWs)   bands (ev):

   -68.2827 -67.7445 -67.7437 -35.6940 -35.6889 -35.6888 -35.1773 -35.1772
   -35.1753 -35.1708 -35.1697 -35.1684 -14.2145 -14.2089 -14.2086 -14.2051
   -14.1878 -14.1840 -14.1710 -14.1706 -14.1618 -14.1578  -3.1069  -2.8677
     3.8469   4.1396   6.0099   6.2483   6.5179   6.8385   8.7373   9.6521
    11.0512  11.2952  12.2452  12.7957  12.9749  13.4700  13.7356  14.1140
    14.4284  14.8665  15.6993  16.9037  17.5806  18.4060  18.6423  18.8157
    19.0445  19.8072

          k = 0.3000 0.1732 0.3164 ( 30796 PWs)   bands (ev):

   -68.2827 -67.7445 -67.7437 -35.6940 -35.6889 -35.6888 -35.1773 -35.1773
   -35.1754 -35.1707 -35.1696 -35.1684 -14.2148 -14.2088 -14.2084 -14.2049
   -14.1877 -14.1837 -14.1705 -14.1701 -14.1622 -14.1576  -3.0537  -2.8309
     3.6935   4.0116   5.9998   6.2739   6.4412   6.7727   8.6322   9.5574
    10.8046  11.1326  12.3696  13.0774  13.2946  13.4899  13.9854  14.1158
    14.4170  14.9197  16.1253  17.2328  17.8928  18.5776  18.9589  19.1137
    19.1985  20.0304

          k = 0.3250 0.1876 0.3164 ( 30792 PWs)   bands (ev):

   -68.2827 -67.7445 -67.7438 -35.6940 -35.6889 -35.6888 -35.1774 -35.1773
   -35.1756 -35.1707 -35.1695 -35.1684 -14.2150 -14.2090 -14.2079 -14.2047
   -14.1876 -14.1833 -14.1701 -14.1695 -14.1626 -14.1574  -3.0008  -2.7958
     3.5440   3.8857   6.0068   6.3121   6.3717   6.7124   8.5452   9.4711
    10.5691  10.9622  12.4611  13.3176  13.4811  13.5724  14.1654  14.2924
    14.4846  15.0189  16.5482  17.5257  18.2675  18.7069  19.2747  19.3285
    19.3903  20.1653

          k = 0.3500 0.2021 0.3164 ( 30800 PWs)   bands (ev):

   -68.2827 -67.7444 -67.7438 -35.6940 -35.6889 -35.6888 -35.1774 -35.1774
   -35.1757 -35.1707 -35.1693 -35.1684 -14.2152 -14.2092 -14.2075 -14.2045
   -14.1876 -14.1830 -14.1697 -14.1689 -14.1630 -14.1572  -2.9494  -2.7637
     3.4043   3.7667   6.0261   6.3102   6.3568   6.6585   8.4775   9.3928
    10.3510  10.7970  12.5203  13.4753  13.4808  13.7229  14.3447  14.6187
    14.6602  15.1649  16.9454  17.8038  18.6243  18.8199  19.4231  19.4471
    19.6500  20.0570

          k = 0.3750 0.2165 0.3164 ( 30804 PWs)   bands (ev):

   -68.2827 -67.7444 -67.7438 -35.6940 -35.6890 -35.6888 -35.1774 -35.1774
   -35.1758 -35.1706 -35.1692 -35.1684 -14.2154 -14.2094 -14.2072 -14.2043
   -14.1876 -14.1827 -14.1694 -14.1684 -14.1634 -14.1570  -2.9011  -2.7356
     3.2790   3.6588   6.0530   6.2573   6.4024   6.6118   8.4298   9.3209
    10.1562  10.6449  12.5535  13.4728  13.5656  13.7547  14.6493  14.9336
    14.9558  15.3535  17.2884  18.0903  18.6314  19.1547  19.2078  19.5174
    19.7193  19.7738

          k = 0.4000 0.2309 0.3164 ( 30780 PWs)   bands (ev):

   -68.2827 -67.7444 -67.7439 -35.6940 -35.6890 -35.6888 -35.1775 -35.1774
   -35.1758 -35.1706 -35.1691 -35.1684 -14.2156 -14.2096 -14.2069 -14.2041
   -14.1876 -14.1824 -14.1691 -14.1678 -14.1638 -14.1569  -2.8573  -2.7125
     3.1717   3.5655   6.0830   6.2134   6.4446   6.5728   8.4021   9.2531
     9.9912  10.5114  12.5689  13.4716  13.6014  13.7431  15.0075  15.2631
    15.2968  15.5757  17.5442  18.3343  18.5132  18.8212  19.2254  19.3190
    19.6447  19.8016

          k = 0.4250 0.2454 0.3164 ( 30784 PWs)   bands (ev):

   -68.2827 -67.7444 -67.7439 -35.6940 -35.6890 -35.6888 -35.1775 -35.1775
   -35.1759 -35.1706 -35.1690 -35.1684 -14.2157 -14.2097 -14.2067 -14.2040
   -14.1876 -14.1822 -14.1688 -14.1673 -14.1643 -14.1567  -2.8198  -2.6951
     3.0853   3.4900   6.1120   6.1790   6.4799   6.5421   8.3925   9.1882
     9.8618  10.4010  12.5739  13.4702  13.6145  13.7215  15.3839  15.6101
    15.6291  15.8209  17.6545  18.2087  18.4194  18.7107  18.9461  18.9545
    19.7952  20.1655

          k = 0.4500 0.2598 0.3164 ( 30766 PWs)   bands (ev):

   -68.2827 -67.7443 -67.7439 -35.6940 -35.6890 -35.6888 -35.1775 -35.1775
   -35.1760 -35.1706 -35.1689 -35.1685 -14.2158 -14.2098 -14.2065 -14.2039
   -14.1876 -14.1821 -14.1686 -14.1667 -14.1647 -14.1566  -2.7904  -2.6835
     3.0221   3.4344   6.1362   6.1542   6.5059   6.5199   8.3962   9.1292
     9.7716  10.3181  12.5741  13.4687  13.6186  13.7012  15.7567  15.9190
    15.9402  16.0836  17.5243  18.0399  18.0888  18.6294  18.7125  18.9276
    19.9694  20.1024

          k = 0.4750 0.2742 0.3164 ( 30744 PWs)   bands (ev):

   -68.2827 -67.7443 -67.7439 -35.6940 -35.6890 -35.6888 -35.1775 -35.1775
   -35.1760 -35.1706 -35.1688 -35.1685 -14.2159 -14.2099 -14.2064 -14.2039
   -14.1876 -14.1820 -14.1685 -14.1662 -14.1651 -14.1566  -2.7714  -2.6774
     2.9835   3.4004   6.1392   6.1522   6.5065   6.5217   8.4050   9.0852
     9.7197  10.2665  12.5729  13.4675  13.6199  13.6871  16.0855  16.1160
    16.2053  16.3371  17.2659  17.7270  17.9667  18.4055  18.6612  18.9977
    20.0692  20.1500

          k = 0.5000 0.2887 0.3164 ( 30712 PWs)   bands (ev):

   -68.2827 -67.7443 -67.7439 -35.6940 -35.6890 -35.6888 -35.1775 -35.1775
   -35.1760 -35.1706 -35.1688 -35.1685 -14.2159 -14.2099 -14.2064 -14.2038
   -14.1876 -14.1819 -14.1685 -14.1659 -14.1654 -14.1566  -2.7647  -2.6755
     2.9705   3.3890   6.1343   6.1578   6.5020   6.5269   8.4094   9.0686
     9.7030  10.2489  12.5723  13.4670  13.6202  13.6820  16.1873  16.2393
    16.3231  16.4589  17.1175  17.5886  17.8951  18.3222  18.6716  19.0041
    20.1132  20.1640

          k = 0.4917 0.3031 0.3164 ( 30740 PWs)   bands (ev):

   -68.2827 -67.7443 -67.7439 -35.6940 -35.6890 -35.6888 -35.1775 -35.1775
   -35.1760 -35.1706 -35.1688 -35.1685 -14.2159 -14.2099 -14.2064 -14.2039
   -14.1876 -14.1820 -14.1685 -14.1659 -14.1654 -14.1566  -2.7642  -2.6752
     2.9725   3.3903   6.0274   6.2561   6.4296   6.5893   8.4200   9.0751
     9.7142  10.2534  12.5352  13.3551  13.6618  13.7961  16.1418  16.2156
    16.3026  16.4351  17.1550  17.6218  17.9184  18.3459  18.6773  19.0052
    20.1147  20.1628

          k = 0.4833 0.3175 0.3164 ( 30764 PWs)   bands (ev):

   -68.2827 -67.7443 -67.7439 -35.6940 -35.6890 -35.6888 -35.1776 -35.1775
   -35.1760 -35.1706 -35.1688 -35.1685 -14.2158 -14.2099 -14.2064 -14.2039
   -14.1875 -14.1820 -14.1686 -14.1659 -14.1653 -14.1566  -2.7627  -2.6742
     2.9784   3.3944   5.9024   6.3367   6.3559   6.6532   8.4513   9.0935
     9.7485  10.2671  12.4377  13.1803  13.7724  13.9775  16.0329  16.1388
    16.2443  16.3685  17.2536  17.7131  17.9830  18.4138  18.6948  19.0088
    20.1191  20.1589

          k = 0.4750 0.3320 0.3164 ( 30762 PWs)   bands (ev):

   -68.2827 -67.7443 -67.7439 -35.6940 -35.6890 -35.6888 -35.1776 -35.1774
   -35.1760 -35.1706 -35.1688 -35.1685 -14.2157 -14.2099 -14.2065 -14.2039
   -14.1875 -14.1820 -14.1687 -14.1658 -14.1653 -14.1567  -2.7602  -2.6726
     2.9883   3.4011   5.7716   6.2347   6.4459   6.7087   8.5017   9.1205
     9.8070  10.2902  12.3048  13.0015  13.9270  14.1664  15.8915  16.0198
    16.1565  16.2695  17.3878  17.8446  18.0762  18.5188  18.7264  19.0162
    20.1265  20.1513

          k = 0.4667 0.3464 0.3164 ( 30764 PWs)   bands (ev):

   -68.2827 -67.7443 -67.7439 -35.6940 -35.6890 -35.6889 -35.1776 -35.1774
   -35.1760 -35.1705 -35.1688 -35.1685 -14.2156 -14.2098 -14.2066 -14.2039
   -14.1874 -14.1820 -14.1688 -14.1657 -14.1652 -14.1568  -2.7567  -2.6705
     3.0021   3.4104   5.6366   6.1253   6.5261   6.7568   8.5687   9.1525
     9.8908  10.3229  12.1547  12.8257  14.1073  14.3535  15.7340  15.8750
    16.0489  16.1497  17.5381  18.0005  18.1833  18.6521  18.7758  19.0294
    20.1367  20.1383

          k = 0.4583 0.3608 0.3164 ( 30786 PWs)   bands (ev):

   -68.2827 -67.7443 -67.7439 -35.6940 -35.6890 -35.6889 -35.1776 -35.1774
   -35.1761 -35.1705 -35.1688 -35.1685 -14.2155 -14.2097 -14.2067 -14.2040
   -14.1872 -14.1821 -14.1690 -14.1656 -14.1650 -14.1569  -2.7523  -2.6678
     3.0198   3.4222   5.4991   6.0104   6.5972   6.7990   8.6491   9.1861
    10.0001  10.3656  11.9973  12.6556  14.3029  14.5323  15.5691  15.7159
    15.9300  16.0211  17.6911  18.1699  18.2906  18.8030  18.8508  19.0521
    20.1175  20.1493

          k = 0.4500 0.3753 0.3164 ( 30786 PWs)   bands (ev):

   -68.2827 -67.7443 -67.7439 -35.6940 -35.6890 -35.6889 -35.1777 -35.1773
   -35.1761 -35.1705 -35.1688 -35.1685 -14.2153 -14.2096 -14.2068 -14.2040
   -14.1871 -14.1822 -14.1691 -14.1655 -14.1649 -14.1570  -2.7470  -2.6647
     3.0414   3.4364   5.3604   5.8917   6.6599   6.8364   8.7393   9.2194
    10.1334  10.4186  11.8382  12.4932  14.5065  14.6924  15.4026  15.5496
    15.8021  15.9020  17.8362  18.3455  18.3881  18.9337  18.9867  19.0895
    20.0860  20.1635

          k = 0.4417 0.3897 0.3164 ( 30794 PWs)   bands (ev):

   -68.2827 -67.7443 -67.7440 -35.6940 -35.6890 -35.6889 -35.1777 -35.1773
   -35.1761 -35.1705 -35.1688 -35.1685 -14.2151 -14.2095 -14.2070 -14.2041
   -14.1869 -14.1822 -14.1693 -14.1653 -14.1648 -14.1572  -2.7409  -2.6612
     3.0668   3.4528   5.2219   5.7711   6.7156   6.8701   8.8352   9.2515
    10.2886  10.4815  11.6808  12.3407  14.7088  14.8157  15.2419  15.3813
    15.6608  15.8219  17.9630  18.4715  18.5225  19.0581  19.1481  19.1637
    20.0412  20.1768

          k = 0.4333 0.4041 0.3164 ( 30794 PWs)   bands (ev):

   -68.2827 -67.7443 -67.7440 -35.6940 -35.6890 -35.6889 -35.1777 -35.1773
   -35.1762 -35.1705 -35.1688 -35.1685 -14.2148 -14.2095 -14.2072 -14.2041
   -14.1867 -14.1823 -14.1695 -14.1652 -14.1646 -14.1574  -2.7341  -2.6574
     3.0961   3.4711   5.0846   5.6503   6.7653   6.9010   8.9331   9.2825
    10.4629  10.5533  11.5272  12.2011  14.8658  14.8762  15.1183  15.2258
    15.5083  15.8094  18.0620  18.5429  18.6981  19.1994  19.2332  19.3471
    19.9832  20.1807

          k = 0.4250 0.4186 0.3164 ( 30804 PWs)   bands (ev):

   -68.2827 -67.7443 -67.7440 -35.6940 -35.6890 -35.6889 -35.1777 -35.1772
   -35.1762 -35.1705 -35.1688 -35.1685 -14.2146 -14.2094 -14.2074 -14.2042
   -14.1865 -14.1824 -14.1697 -14.1650 -14.1645 -14.1576  -2.7267  -2.6535
     3.1292   3.4911   4.9496   5.5310   6.8101   6.9298   9.0296   9.3125
    10.6310  10.6533  11.3791  12.0790  14.8211  14.8604  15.0137  15.2590
    15.3501  15.8755  18.1274  18.6063  18.8705  19.3448  19.3519  19.5240
    19.9202  20.1472

          k = 0.4167 0.4330 0.3164 ( 30788 PWs)   bands (ev):

   -68.2827 -67.7443 -67.7440 -35.6940 -35.6890 -35.6889 -35.1777 -35.1772
   -35.1762 -35.1705 -35.1688 -35.1685 -14.2143 -14.2093 -14.2076 -14.2043
   -14.1863 -14.1825 -14.1699 -14.1648 -14.1643 -14.1578  -2.7187  -2.6495
     3.1660   3.5123   4.8178   5.4147   6.8508   6.9567   9.1216   9.3418
    10.7090  10.8566  11.2387  11.9814  14.6726  14.7844  14.8511  15.1896
    15.4604  16.0024  18.1591  18.6656  19.0364  19.4763  19.5079  19.6504
    19.8958  20.0572

          k = 0.4083 0.4474 0.3164 ( 30798 PWs)   bands (ev):

   -68.2827 -67.7443 -67.7440 -35.6940 -35.6890 -35.6889 -35.1778 -35.1772
   -35.1763 -35.1704 -35.1687 -35.1685 -14.2140 -14.2092 -14.2078 -14.2043
   -14.1860 -14.1826 -14.1701 -14.1645 -14.1642 -14.1580  -2.7104  -2.6456
     3.2064   3.5344   4.6900   5.3029   6.8882   6.9820   9.2070   9.3703
    10.7782  11.0517  11.1265  11.9183  14.5106  14.6740  14.6850  15.0284
    15.6856  16.1635  18.1618  18.7228  19.1858  19.6162  19.6244  19.6741
    19.9518  19.9977

          k = 0.4000 0.4619 0.3164 ( 30780 PWs)   bands (ev):

   -68.2827 -67.7442 -67.7440 -35.6940 -35.6890 -35.6889 -35.1778 -35.1771
   -35.1763 -35.1704 -35.1687 -35.1685 -14.2138 -14.2091 -14.2080 -14.2044
   -14.1858 -14.1827 -14.1702 -14.1643 -14.1641 -14.1582  -2.7018  -2.6420
     3.2504   3.5567   4.5670   5.1970   6.9225   7.0057   9.2842   9.3979
    10.8266  10.9726  11.3077  11.9021  14.3467  14.5209  14.5464  14.8676
    15.9175  16.3403  18.1415  18.7784  19.2935  19.5513  19.7494  19.8101
    19.8777  20.1515

          k = 0.3917 0.4763 0.3164 ( 30816 PWs)   bands (ev):

   -68.2827 -67.7442 -67.7440 -35.6940 -35.6890 -35.6889 -35.1778 -35.1771
   -35.1764 -35.1704 -35.1687 -35.1685 -14.2135 -14.2090 -14.2082 -14.2044
   -14.1855 -14.1829 -14.1704 -14.1641 -14.1639 -14.1585  -2.6930  -2.6387
     3.2978   3.5785   4.4494   5.0986   6.9543   7.0275   9.3522   9.4244
    10.8450  10.8600  11.5413  11.9420  14.1837  14.3602  14.4111  14.7079
    16.1515  16.5220  18.1038  18.8304  19.3193  19.4635  19.8269  19.9151
    19.9315  20.2923

          k = 0.3833 0.4907 0.3164 ( 30804 PWs)   bands (ev):

   -68.2827 -67.7442 -67.7440 -35.6940 -35.6890 -35.6889 -35.1778 -35.1770
   -35.1764 -35.1704 -35.1687 -35.1685 -14.2132 -14.2090 -14.2084 -14.2044
   -14.1853 -14.1830 -14.1705 -14.1639 -14.1638 -14.1587  -2.6842  -2.6360
     3.3483   3.5989   4.3381   5.0091   6.9835   7.0472   9.4103   9.4492
    10.7579  10.8344  11.7833  12.0371  14.0224  14.2039  14.2734  14.5499
    16.3850  16.7010  18.0530  18.8729  19.2607  19.3885  19.8659  20.0139
    20.0397  20.3977

          k = 0.3750 0.5052 0.3164 ( 30796 PWs)   bands (ev):

   -68.2827 -67.7442 -67.7440 -35.6940 -35.6890 -35.6889 -35.1778 -35.1770
   -35.1765 -35.1704 -35.1687 -35.1685 -14.2129 -14.2090 -14.2086 -14.2045
   -14.1850 -14.1832 -14.1706 -14.1637 -14.1637 -14.1589  -2.6756  -2.6339
     3.4016   3.6168   4.2338   4.9302   7.0100   7.0644   9.4580   9.4716
    10.6690  10.8042  12.0310  12.1773  13.8633  14.0530  14.1366  14.3938
    16.6147  16.8713  17.9930  18.8946  19.1603  19.3452  19.8970  20.0387
    20.1755  20.4721

          k = 0.3667 0.5196 0.3164 ( 30814 PWs)   bands (ev):

   -68.2827 -67.7442 -67.7441 -35.6940 -35.6889 -35.6889 -35.1778 -35.1770
   -35.1766 -35.1704 -35.1687 -35.1685 -14.2126 -14.2090 -14.2088 -14.2045
   -14.1848 -14.1833 -14.1707 -14.1636 -14.1635 -14.1591  -2.6673  -2.6328
     3.4570   3.6313   4.1376   4.8634   7.0338   7.0786   9.4910   9.4948
    10.5947  10.7663  12.2817  12.3503  13.7070  13.9095  14.0032  14.2399
    16.8362  17.0265  17.9275  18.8854  19.0480  19.3500  19.9062  20.0088
    20.3088  20.5373

          k = 0.3583 0.5340 0.3164 ( 30812 PWs)   bands (ev):

   -68.2827 -67.7442 -67.7441 -35.6940 -35.6889 -35.6889 -35.1778 -35.1769
   -35.1766 -35.1704 -35.1687 -35.1686 -14.2124 -14.2090 -14.2090 -14.2045
   -14.1846 -14.1835 -14.1708 -14.1635 -14.1633 -14.1593  -2.6595  -2.6328
     3.5133   3.6413   4.0511   4.8101   7.0545   7.0892   9.5070   9.5205
    10.5366  10.7298  12.5313  12.5454  13.5537  13.7767  13.8762  14.0885
    17.0415  17.1597  17.8612  18.8520  18.9390  19.4016  19.8938  19.9458
    20.4302  20.5973

          k = 0.3500 0.5485 0.3164 ( 30814 PWs)   bands (ev):

   -68.2827 -67.7442 -67.7441 -35.6940 -35.6889 -35.6889 -35.1779 -35.1769
   -35.1767 -35.1704 -35.1686 -35.1686 -14.2123 -14.2091 -14.2090 -14.2045
   -14.1843 -14.1836 -14.1709 -14.1634 -14.1632 -14.1595  -2.6523  -2.6339
     3.5677   3.6459   3.9775   4.7717   7.0716   7.0956   9.5194   9.5353
    10.4954  10.7008  12.7524  12.7699  13.4038  13.6641  13.7602  13.9397
    17.2155  17.2637  17.8025  18.8129  18.8450  19.4863  19.8639  19.8693
    20.5356  20.6464

          k = 0.3417 0.5629 0.3164 ( 30814 PWs)   bands (ev):

   -68.2827 -67.7441 -67.7441 -35.6940 -35.6889 -35.6889 -35.1779 -35.1768
   -35.1767 -35.1704 -35.1686 -35.1686 -14.2121 -14.2091 -14.2090 -14.2045
   -14.1841 -14.1838 -14.1709 -14.1633 -14.1632 -14.1596  -2.6459  -2.6364
     3.6136   3.6448   3.9235   4.7487   7.0849   7.0973   9.5288   9.5400
    10.4712  10.6827  12.9567  12.9679  13.2582  13.6002  13.6659  13.7938
    17.3309  17.3321  17.7662  18.7803  18.7818  19.5905  19.7934  19.8203
    20.6262  20.6796

          k = 0.3333 0.5773 0.3164 ( 30828 PWs)   bands (ev):

   -68.2827 -67.7441 -67.7441 -35.6940 -35.6889 -35.6889 -35.1779 -35.1768
   -35.1768 -35.1704 -35.1686 -35.1686 -14.2121 -14.2091 -14.2091 -14.2045
   -14.1840 -14.1840 -14.1709 -14.1632 -14.1632 -14.1596  -2.6405  -2.6405
     3.6382   3.6382   3.9022   4.7411   7.0937   7.0937   9.5363   9.5363
    10.4635  10.6767  13.0524  13.1220  13.1220  13.6261  13.6525  13.6525
    17.3615  17.3615  17.7595  18.7633  18.7633  19.6654  19.7666  19.7666
    20.6919  20.7045

          k = 0.3167 0.5485 0.3164 ( 30800 PWs)   bands (ev):

   -68.2827 -67.7442 -67.7441 -35.6940 -35.6889 -35.6889 -35.1779 -35.1769
   -35.1767 -35.1704 -35.1686 -35.1686 -14.2122 -14.2092 -14.2089 -14.2045
   -14.1843 -14.1837 -14.1709 -14.1635 -14.1631 -14.1595  -2.6538  -2.6332
     3.6051   3.6128   3.9767   4.7691   7.0691   7.0961   9.5131   9.5535
    10.4908  10.6984  12.8348  12.9448  13.1388  13.3729  13.9110  14.0840
    17.2529  17.3132  17.7061  18.7469  18.8993  19.5651  19.6510  19.9967
    20.5308  20.6418

          k = 0.3000 0.5196 0.3164 ( 30802 PWs)   bands (ev):

   -68.2827 -67.7442 -67.7441 -35.6940 -35.6889 -35.6889 -35.1778 -35.1770
   -35.1765 -35.1704 -35.1687 -35.1685 -14.2125 -14.2094 -14.2085 -14.2045
   -14.1846 -14.1835 -14.1708 -14.1640 -14.1630 -14.1592  -2.6745  -2.6315
     3.5439   3.5817   4.1265   4.8447   7.0209   7.0758   9.4860   9.5864
    10.5613  10.7540  12.5803  12.7310  12.9886  13.1093  14.4131  14.6348
    17.0763  17.1643  17.5247  18.7021  19.0501  19.4620  19.6439  19.9856
    20.4026  20.4609

          k = 0.2833 0.4907 0.3164 ( 30794 PWs)   bands (ev):

   -68.2827 -67.7442 -67.7440 -35.6940 -35.6889 -35.6889 -35.1778 -35.1770
   -35.1764 -35.1704 -35.1688 -35.1685 -14.2129 -14.2095 -14.2080 -14.2047
   -14.1850 -14.1833 -14.1706 -14.1647 -14.1628 -14.1589  -2.7032  -2.6362
     3.5034   3.5574   4.3029   4.9558   6.9511   7.0319   9.4706   9.6458
    10.6588  10.8285  12.3462  12.5185  12.8304  12.8772  14.9514  15.2058
    16.8863  16.9611  17.2807  18.5993  18.9047  19.2272  19.7044  19.8665
    20.1135  20.2702

          k = 0.2667 0.4619 0.3164 ( 30800 PWs)   bands (ev):

   -68.2827 -67.7443 -67.7440 -35.6940 -35.6890 -35.6889 -35.1778 -35.1771
   -35.1763 -35.1704 -35.1689 -35.1684 -14.2132 -14.2097 -14.2076 -14.2048
   -14.1853 -14.1833 -14.1705 -14.1654 -14.1627 -14.1586  -2.7399  -2.6479
     3.4931   3.5491   4.4952   5.0925   6.8649   6.9665   9.4734   9.7351
    10.7682  10.9103  12.1375  12.3239  12.6070  12.7635  15.4829  15.7624
    16.6969  16.7290  17.0141  18.4529  18.5827  18.7761  19.4526  19.6809
    19.9571  20.2534

          k = 0.2500 0.4330 0.3164 ( 30828 PWs)   bands (ev):

   -68.2827 -67.7443 -67.7439 -35.6940 -35.6889 -35.6889 -35.1777 -35.1771
   -35.1762 -35.1705 -35.1690 -35.1684 -14.2135 -14.2098 -14.2071 -14.2051
   -14.1857 -14.1834 -14.1704 -14.1662 -14.1626 -14.1583  -2.7841  -2.6667
     3.5149   3.5621   4.6998   5.2475   6.7691   6.8843   9.4932   9.8522
    10.8723  10.9922  11.9594  12.1591  12.3812  12.7171  15.9552  16.2066
    16.4809  16.5046  16.8047  18.2025  18.2103  18.3972  19.0725  19.4236
    19.7543  20.1072

          k = 0.2333 0.4041 0.3164 ( 30834 PWs)   bands (ev):

   -68.2827 -67.7444 -67.7439 -35.6940 -35.6889 -35.6889 -35.1777 -35.1772
   -35.1760 -35.1705 -35.1691 -35.1684 -14.2137 -14.2098 -14.2068 -14.2054
   -14.1860 -14.1835 -14.1704 -14.1670 -14.1625 -14.1582  -2.8349  -2.6924
     3.5680   3.5987   4.9142   5.4151   6.6715   6.7922   9.5237   9.9914
    10.9482  11.0728  11.8150  12.0451  12.1678  12.7291  16.1336  16.2121
    16.2541  16.3391  16.9423  17.8570  17.9194  18.2367  18.6593  19.2247
    19.6074  19.6565

          k = 0.2167 0.3753 0.3164 ( 30808 PWs)   bands (ev):

   -68.2827 -67.7444 -67.7438 -35.6940 -35.6889 -35.6889 -35.1776 -35.1772
   -35.1759 -35.1706 -35.1692 -35.1684 -14.2139 -14.2099 -14.2065 -14.2057
   -14.1863 -14.1836 -14.1705 -14.1678 -14.1623 -14.1580  -2.8911  -2.7242
     3.6501   3.6589   5.1360   5.5899   6.5802   6.6976   9.5568  10.1442
    10.9719  11.1554  11.7003  11.9696  12.0128  12.7976  15.8138  15.8413
    16.1099  16.3026  16.9937  17.6862  17.9252  18.0015  18.4780  18.9815
    19.3225  19.4999

          k = 0.2000 0.3464 0.3164 ( 30836 PWs)   bands (ev):

   -68.2827 -67.7444 -67.7438 -35.6940 -35.6889 -35.6889 -35.1775 -35.1772
   -35.1757 -35.1706 -35.1694 -35.1684 -14.2140 -14.2099 -14.2062 -14.2061
   -14.1866 -14.1838 -14.1706 -14.1686 -14.1621 -14.1580  -2.9511  -2.7611
     3.7406   3.7581   5.3618   5.7652   6.5048   6.6089   9.5855  10.2984
    10.9390  11.2415  11.6155  11.7942  12.0725  12.9161  15.3527  15.4593
    15.9564  16.0340  16.7907  17.5609  17.6408  18.0659  18.5452  18.6333
    19.4137  19.4826

          k = 0.1833 0.3175 0.3164 ( 30838 PWs)   bands (ev):

   -68.2827 -67.7445 -67.7438 -35.6940 -35.6889 -35.6888 -35.1774 -35.1772
   -35.1756 -35.1707 -35.1695 -35.1684 -14.2140 -14.2099 -14.2065 -14.2061
   -14.1869 -14.1840 -14.1708 -14.1693 -14.1618 -14.1580  -3.0133  -2.8019
     3.8401   3.8872   5.5870   5.9300   6.4594   6.5353   9.6066  10.4378
    10.8691  11.3041  11.5760  11.6764  12.1979  13.0757  14.8606  15.0134
    15.6886  15.8110  16.5381  17.1960  17.5006  17.9318  18.2152  18.7585
    19.6725  19.7957

          k = 0.1667 0.2887 0.3164 ( 30810 PWs)   bands (ev):

   -68.2827 -67.7445 -67.7437 -35.6940 -35.6889 -35.6888 -35.1774 -35.1772
   -35.1754 -35.1707 -35.1697 -35.1684 -14.2140 -14.2100 -14.2069 -14.2060
   -14.1872 -14.1842 -14.1711 -14.1701 -14.1616 -14.1581  -3.0762  -2.8451
     3.9518   4.0316   5.8030   6.0639   6.4671   6.4896   9.6218  10.5444
    10.7830  11.2567  11.6021  11.7058  12.3531  13.2670  14.3669  14.5321
    15.3203  15.6784  16.2817  16.8436  17.3781  17.5237  18.0805  18.7273
    19.9665  20.1680

          k = 0.1500 0.2598 0.3164 ( 30826 PWs)   bands (ev):

   -68.2827 -67.7446 -67.7437 -35.6940 -35.6889 -35.6888 -35.1773 -35.1772
   -35.1752 -35.1708 -35.1699 -35.1684 -14.2139 -14.2101 -14.2072 -14.2060
   -14.1875 -14.1845 -14.1715 -14.1708 -14.1613 -14.1582  -3.1379  -2.8893
     4.0684   4.1833   5.9942   6.1508   6.4915   6.5477   9.6368  10.6053
    10.6987  11.1175  11.6999  11.8616  12.4980  13.4776  13.9109  14.0502
    14.9313  15.5608  16.0162  16.5429  17.1247  17.2551  17.9442  18.6196
    19.7978  19.8787

          k = 0.1333 0.2309 0.3164 ( 30846 PWs)   bands (ev):

   -68.2827 -67.7446 -67.7437 -35.6940 -35.6889 -35.6888 -35.1772 -35.1771
   -35.1751 -35.1708 -35.1700 -35.1684 -14.2138 -14.2103 -14.2074 -14.2060
   -14.1878 -14.1848 -14.1719 -14.1714 -14.1609 -14.1583  -3.1971  -2.9330
     4.1816   4.3327   6.1412   6.2155   6.5647   6.6790   9.6594  10.5649
    10.6900  10.9490  11.8493  12.0745  12.5563  13.5202  13.5750  13.7703
    14.5234  15.4579  15.7330  16.2934  16.7889  17.1349  17.7947  18.4633
    19.4031  19.4151

          k = 0.1167 0.2021 0.3164 ( 30830 PWs)   bands (ev):

   -68.2827 -67.7446 -67.7436 -35.6940 -35.6889 -35.6888 -35.1771 -35.1771
   -35.1749 -35.1709 -35.1702 -35.1684 -14.2136 -14.2107 -14.2075 -14.2061
   -14.1881 -14.1850 -14.1723 -14.1720 -14.1606 -14.1585  -3.2524  -2.9749
     4.2830   4.4688   6.2544   6.2963   6.7023   6.8250   9.6979  10.4642
    10.7373  10.7649  11.9924  12.3206  12.4390  13.1083  13.4815  13.9812
    14.1137  15.3354  15.4700  16.0872  16.5285  17.0183  17.6339  18.2390
    18.9420  19.0584

          k = 0.1000 0.1732 0.3164 ( 30832 PWs)   bands (ev):

   -68.2827 -67.7446 -67.7436 -35.6940 -35.6888 -35.6888 -35.1771 -35.1770
   -35.1747 -35.1709 -35.1704 -35.1684 -14.2135 -14.2111 -14.2075 -14.2063
   -14.1883 -14.1853 -14.1726 -14.1725 -14.1603 -14.1587  -3.3026  -3.0137
     4.3662   4.5819   6.3749   6.4120   6.8640   6.9656   9.7581  10.3488
    10.5663  10.8079  11.9124  12.3887  12.5850  12.7184  13.5798  13.6812
    14.2510  15.0697  15.3771  15.9153  16.3361  16.9044  17.4604  17.9279
    18.4786  18.8192

          k = 0.0833 0.1443 0.3164 ( 30828 PWs)   bands (ev):

   -68.2827 -67.7447 -67.7436 -35.6940 -35.6888 -35.6888 -35.1770 -35.1770
   -35.1745 -35.1710 -35.1706 -35.1684 -14.2133 -14.2115 -14.2074 -14.2064
   -14.1886 -14.1855 -14.1730 -14.1729 -14.1600 -14.1588  -3.3468  -3.0483
     4.4285   4.6665   6.5282   6.5666   7.0191   7.0912   9.8346  10.2147
    10.3621  10.9064  11.6091  12.3845  12.5108  12.8271  13.3139  13.7394
    14.5057  14.7931  15.3646  15.7696  16.1983  16.7911  17.2705  17.5622
    18.0342  18.6690

          k = 0.0667 0.1155 0.3164 ( 30834 PWs)   bands (ev):

   -68.2827 -67.7447 -67.7436 -35.6940 -35.6888 -35.6888 -35.1770 -35.1770
   -35.1744 -35.1710 -35.1707 -35.1685 -14.2131 -14.2119 -14.2073 -14.2066
   -14.1888 -14.1857 -14.1733 -14.1733 -14.1598 -14.1590  -3.3840  -3.0778
     4.4712   4.7234   6.7165   6.7535   7.1523   7.1965   9.8596  10.0519
    10.2259  11.0277  11.3217  12.1196  12.6014  12.7280  13.3124  13.9044
    14.5834  14.7453  15.4021  15.6471  16.1058  16.6757  17.0603  17.1927
    17.6177  18.5711

          k = 0.0500 0.0866 0.3164 ( 30822 PWs)   bands (ev):

   -68.2827 -67.7447 -67.7436 -35.6940 -35.6888 -35.6888 -35.1769 -35.1769
   -35.1742 -35.1711 -35.1709 -35.1685 -14.2130 -14.2123 -14.2072 -14.2068
   -14.1889 -14.1859 -14.1735 -14.1735 -14.1595 -14.1591  -3.4136  -3.1016
     4.4982   4.7582   6.9269   6.9578   7.2569   7.2790   9.7017   9.8579
    10.3010  11.0339  11.2486  11.9233  12.3701  12.5917  13.5998  14.0590
    14.4695  14.9288  15.4877  15.5629  16.0584  16.5562  16.8303  16.8582
    17.2385  18.5045

          k = 0.0333 0.0577 0.3164 ( 30872 PWs)   bands (ev):

   -68.2827 -67.7447 -67.7436 -35.6940 -35.6888 -35.6888 -35.1769 -35.1769
   -35.1741 -35.1711 -35.1710 -35.1685 -14.2129 -14.2125 -14.2071 -14.2069
   -14.1891 -14.1860 -14.1737 -14.1737 -14.1594 -14.1592  -3.4351  -3.1189
     4.5138   4.7775   7.1337   7.1543   7.3304   7.3376   9.4787   9.6544
    10.4874  10.9023  11.4158  11.7904  12.0135  12.4782  13.9219  14.1946
    14.4413  14.9632  15.5777  15.6037  16.0689  16.4375  16.5876  16.5953
    16.9029  18.4603

          k = 0.0167 0.0289 0.3164 ( 30922 PWs)   bands (ev):

   -68.2827 -67.7447 -67.7435 -35.6940 -35.6888 -35.6888 -35.1769 -35.1769
   -35.1740 -35.1711 -35.1711 -35.1685 -14.2128 -14.2127 -14.2071 -14.2070
   -14.1892 -14.1861 -14.1738 -14.1738 -14.1593 -14.1592  -3.4481  -3.1295
     4.5217   4.7868   7.2970   7.3057   7.3715   7.3721   9.2982   9.4913
    10.6908  10.8232  11.5970  11.6994  11.7281  12.3167  14.2431  14.2797
    14.4681  14.8166  15.6851  15.7072  16.1631  16.3426  16.3979  16.3987
    16.6108  18.4347

          k = 0.0000 0.0000 0.3164 ( 31016 PWs)   bands (ev):

   -68.2827 -67.7447 -67.7435 -35.6940 -35.6888 -35.6888 -35.1769 -35.1769
   -35.1740 -35.1711 -35.1711 -35.1685 -14.2128 -14.2128 -14.2070 -14.2070
   -14.1892 -14.1861 -14.1738 -14.1738 -14.1593 -14.1593  -3.4525  -3.1331
     4.5240   4.7895   7.3706   7.3706   7.3763   7.3763   9.2275   9.4274
    10.7980  10.7981  11.5710  11.6926  11.6926  12.2241  14.3032  14.4921
    14.4921  14.6175  15.7499  15.7499  16.3111  16.3111  16.3153  16.3153
    16.4002  18.4262

     Writing all to output data dir ./tmp/mg3bi2.save/ :
     XML data file, pseudopotentials, collected wavefunctions
 
     init_run     :      0.13s CPU      0.32s WALL (       1 calls)
     electrons    :     25.28s CPU     26.70s WALL (       1 calls)

     Called by init_run:
     wfcinit      :      0.00s CPU      0.06s WALL (       1 calls)
     wfcinit:atom :      0.01s CPU      0.01s WALL (      36 calls)
     wfcinit:wfcr :      0.70s CPU      0.72s WALL (      36 calls)
     potinit      :      0.01s CPU      0.12s WALL (       1 calls)
     hinit0       :      0.02s CPU      0.03s WALL (       1 calls)

     Called by electrons:
     c_bands      :     25.28s CPU     26.70s WALL (       1 calls)
     v_of_rho     :      0.00s CPU      0.00s WALL (       1 calls)
     v_h          :      0.00s CPU      0.00s WALL (       1 calls)
     v_xc         :      0.00s CPU      0.00s WALL (       1 calls)

     Called by c_bands:
     init_us_2    :      0.01s CPU      0.01s WALL (      36 calls)
     cegterg      :     19.00s CPU     19.31s WALL (      80 calls)

     Called by sum_band:

     Called by *egterg:
     cdiaghg      :      4.12s CPU      4.16s WALL (    1456 calls)
     cegterg:over :      1.36s CPU      1.38s WALL (    1420 calls)
     cegterg:upda :      0.45s CPU      0.46s WALL (    1420 calls)
     cegterg:last :      0.68s CPU      0.69s WALL (     706 calls)
     h_psi        :     10.98s CPU     11.23s WALL (    1536 calls)
     g_psi        :      0.09s CPU      0.09s WALL (    1420 calls)

     Called by h_psi:
     h_psi:calbec :      0.64s CPU      0.66s WALL (    1536 calls)
     vloc_psi     :      9.97s CPU     10.19s WALL (    1536 calls)
                                        0.00s GPU  (    1536 calls)
     add_vuspsi   :      0.28s CPU      0.29s WALL (    1536 calls)

     General routines
     calbec       :      0.64s CPU      0.65s WALL (    1536 calls)
     fft          :      0.01s CPU      0.01s WALL (       4 calls)
     fftw         :      9.16s CPU      9.37s WALL (   66686 calls)
     davcio       :      0.01s CPU      0.05s WALL (      72 calls)
 
     Parallel routines
 
     PWSCF        :     27.97s CPU     44.29s WALL

 
   This run was terminated on:  13:53:18   7Sep2026            

=------------------------------------------------------------------------------=
   JOB DONE.
=------------------------------------------------------------------------------=
