
     Program PWSCF v.7.5 starts on  7Sep2026 at 13:51:53 
        Git branch: develop
        Last git commit: 3c11e307ebcb4724b3e63ad706b3e9727dda56b0
        Last git commit date: Wed Jul 2 15:08:17 2025 +0000
        Last git commit subject: Merge branch 'a-few-qe-75-chores' into 'develop'

     This program is part of the open-source Quantum ESPRESSO suite
     for quantum simulation of materials; please cite
         "P. Giannozzi et al., J. Phys.:Condens. Matter 21 395502 (2009);
         "P. Giannozzi et al., J. Phys.:Condens. Matter 29 465901 (2017);
         "P. Giannozzi et al., J. Chem. Phys. 152 154105 (2020);
          URL http://www.quantum-espresso.org", 
     in publications or presentations arising from this work. More details at
     http://www.quantum-espresso.org/quote

     Parallel version (MPI), running on   240 processors

     MPI processes distributed on     5 nodes
     726844 MiB available memory on the printing compute node when the environment starts
 
     Waiting for input...
     Reading input from standard input

     Current dimensions of program PWSCF are:
     Max number of different atomic species (ntypx) = 10
     Max number of k-points (npk) =  40000
     Max angular momentum in pseudopotentials (lmaxx) =  4
     Message from routine setup:
     using ibrav=0 with symmetry is DISCOURAGED, use correct ibrav instead
 
     K-points division:     npool     =       4
     R & G space division:  proc/nbgrp/npool/nimage =      60
     Subspace diagonalization in iterative solution of the eigenvalue problem:
     a serial algorithm will be used

 
     Parallelization info
     --------------------
     sticks:   dense  smooth     PW     G-vecs:    dense   smooth      PW
     Min          55      55     15                 4103     4103     577
     Max          56      56     16                 4112     4112     585
     Sum        3331    3331    913               246357   246357   34797
 
     Using Slab Decomposition
 


     bravais-lattice index     =            0
     lattice parameter (alat)  =       8.7009  a.u.
     unit-cell volume          =     901.5161 (a.u.)^3
     number of atoms/cell      =            5
     number of atomic types    =            2
     number of electrons       =        60.00
     number of Kohn-Sham states=           50
     kinetic-energy cutoff     =     160.0000  Ry
     charge density cutoff     =     640.0000  Ry
     scf convergence threshold =      1.0E-08
     mixing beta               =       0.3000
     number of iterations used =            8  plain     mixing
     Exchange-correlation= SLA  PW   NOGX NOGC
                           (   1   4   0   0   0   0   0)

     celldm(1)=   8.700867  celldm(2)=   0.000000  celldm(3)=   0.000000
     celldm(4)=   0.000000  celldm(5)=   0.000000  celldm(6)=   0.000000

     crystal axes: (cart. coord. in units of alat)
               a(1) = (   1.000000  -0.000000   0.000000 )  
               a(2) = (  -0.500000   0.866025  -0.000000 )  
               a(3) = (   0.000000   0.000000   1.580357 )  

     reciprocal axes: (cart. coord. in units 2 pi/alat)
               b(1) = (  1.000000  0.577350 -0.000000 )  
               b(2) = (  0.000000  1.154701 -0.000000 )  
               b(3) = (  0.000000  0.000000  0.632768 )  


     PseudoPot. # 1 for Mg read from file:
     /home/IITB/multiscale-mechanics/amit.k.singh/PP/LDA_ONCV/Mg.UPF
     MD5 check sum: b625b74613aebb94f78e131e92efc946
     Pseudo is Norm-conserving, Zval = 10.0
     Generated using ONCVPSP code by D. R. Hamann
     Using radial grid of 1510 points,  4 beta functions with: 
                l(1) =   0
                l(2) =   0
                l(3) =   1
                l(4) =   1

     PseudoPot. # 2 for Bi read from file:
     /home/IITB/multiscale-mechanics/amit.k.singh/PP/LDA_ONCV/Bi.UPF
     MD5 check sum: 56dda99c34bc3f5cc94f668e0bde5a74
     Pseudo is Norm-conserving + core correction, Zval = 15.0
     Generated using ONCVPSP code by D. R. Hamann
     Using radial grid of 1454 points,  6 beta functions with: 
                l(1) =   0
                l(2) =   0
                l(3) =   1
                l(4) =   1
                l(5) =   2
                l(6) =   2

     atomic species   valence    mass     pseudopotential
     Mg               10.00    24.30500     Mg( 1.00)
     Bi               15.00   208.98040     Bi( 1.00)

     12 Sym. Ops., with inversion, found


                                    s                        frac. trans.

      isym =  1     identity                                     

 cryst.   s( 1) = (     1          0          0      )
                  (     0          1          0      )
                  (     0          0          1      )

 cart.    s( 1) = (  1.0000000 -0.0000000  0.0000000 )
                  (  0.0000000  1.0000000  0.0000000 )
                  (  0.0000000  0.0000000  1.0000000 )


      isym =  2     180 deg rotation - cart. axis [1,0,0]        

 cryst.   s( 2) = (     1          0          0      )
                  (    -1         -1          0      )
                  (     0          0         -1      )

 cart.    s( 2) = (  1.0000000  0.0000000  0.0000000 )
                  (  0.0000000 -1.0000000  0.0000000 )
                  (  0.0000000  0.0000000 -1.0000000 )


      isym =  3     120 deg rotation - cryst. axis [0,0,1]       

 cryst.   s( 3) = (     0          1          0      )
                  (    -1         -1          0      )
                  (     0          0          1      )

 cart.    s( 3) = ( -0.5000000 -0.8660254  0.0000000 )
                  (  0.8660254 -0.5000000  0.0000000 )
                  (  0.0000000  0.0000000  1.0000000 )


      isym =  4     120 deg rotation - cryst. axis [0,0,-1]      

 cryst.   s( 4) = (    -1         -1          0      )
                  (     1          0          0      )
                  (     0          0          1      )

 cart.    s( 4) = ( -0.5000000  0.8660254  0.0000000 )
                  ( -0.8660254 -0.5000000  0.0000000 )
                  (  0.0000000  0.0000000  1.0000000 )


      isym =  5     180 deg rotation - cryst. axis [0,1,0]       

 cryst.   s( 5) = (    -1         -1          0      )
                  (     0          1          0      )
                  (     0          0         -1      )

 cart.    s( 5) = ( -0.5000000 -0.8660254  0.0000000 )
                  ( -0.8660254  0.5000000  0.0000000 )
                  (  0.0000000  0.0000000 -1.0000000 )


      isym =  6     180 deg rotation - cryst. axis [1,1,0]       

 cryst.   s( 6) = (     0          1          0      )
                  (     1          0          0      )
                  (     0          0         -1      )

 cart.    s( 6) = ( -0.5000000  0.8660254  0.0000000 )
                  (  0.8660254  0.5000000  0.0000000 )
                  (  0.0000000  0.0000000 -1.0000000 )


      isym =  7     inversion                                    

 cryst.   s( 7) = (    -1          0          0      )
                  (     0         -1          0      )
                  (     0          0         -1      )

 cart.    s( 7) = ( -1.0000000  0.0000000  0.0000000 )
                  (  0.0000000 -1.0000000  0.0000000 )
                  (  0.0000000  0.0000000 -1.0000000 )


      isym =  8     inv. 180 deg rotation - cart. axis [1,0,0]   

 cryst.   s( 8) = (    -1          0          0      )
                  (     1          1          0      )
                  (     0          0          1      )

 cart.    s( 8) = ( -1.0000000 -0.0000000  0.0000000 )
                  (  0.0000000  1.0000000  0.0000000 )
                  (  0.0000000  0.0000000  1.0000000 )


      isym =  9     inv. 120 deg rotation - cryst. axis [0,0,1]  

 cryst.   s( 9) = (     0         -1          0      )
                  (     1          1          0      )
                  (     0          0         -1      )

 cart.    s( 9) = (  0.5000000  0.8660254  0.0000000 )
                  ( -0.8660254  0.5000000  0.0000000 )
                  (  0.0000000  0.0000000 -1.0000000 )


      isym = 10     inv. 120 deg rotation - cryst. axis [0,0,-1] 

 cryst.   s(10) = (     1          1          0      )
                  (    -1          0          0      )
                  (     0          0         -1      )

 cart.    s(10) = (  0.5000000 -0.8660254  0.0000000 )
                  (  0.8660254  0.5000000  0.0000000 )
                  (  0.0000000  0.0000000 -1.0000000 )


      isym = 11     inv. 180 deg rotation - cryst. axis [0,1,0]  

 cryst.   s(11) = (     1          1          0      )
                  (     0         -1          0      )
                  (     0          0          1      )

 cart.    s(11) = (  0.5000000  0.8660254  0.0000000 )
                  (  0.8660254 -0.5000000  0.0000000 )
                  (  0.0000000  0.0000000  1.0000000 )


      isym = 12     inv. 180 deg rotation - cryst. axis [1,1,0]  

 cryst.   s(12) = (     0         -1          0      )
                  (    -1          0          0      )
                  (     0          0          1      )

 cart.    s(12) = (  0.5000000 -0.8660254  0.0000000 )
                  ( -0.8660254 -0.5000000  0.0000000 )
                  (  0.0000000  0.0000000  1.0000000 )


   Cartesian axes

     site n.     atom                  positions (alat units)
         1        Mg     tau(   1) = (  -0.0000000   0.5773503   0.9931272  )
         2        Mg     tau(   2) = (   0.5000000   0.2886751   0.5872300  )
         3        Mg     tau(   3) = (  -0.0000000   0.0000000   0.0000000  )
         4        Bi     tau(   4) = (  -0.0000000   0.5773503   0.3471728  )
         5        Bi     tau(   5) = (   0.5000000   0.2886751   1.2331844  )

   Crystallographic axes

     site n.     atom                  positions (cryst. coord.)
         1        Mg     tau(   1) = (  0.3333333  0.6666667  0.6284194  )
         2        Mg     tau(   2) = (  0.6666667  0.3333333  0.3715806  )
         3        Mg     tau(   3) = (  0.0000000  0.0000000  0.0000000  )
         4        Bi     tau(   4) = (  0.3333333  0.6666667  0.2196799  )
         5        Bi     tau(   5) = (  0.6666667  0.3333333  0.7803201  )

     number of k points=    50  Methfessel-Paxton smearing, width (Ry)=  0.0100
                       cart. coord. in units 2pi/alat
        k(    1) = (   0.0000000   0.0000000   0.0000000), wk =   0.0049383
        k(    2) = (   0.0000000   0.0000000   0.1265537), wk =   0.0098765
        k(    3) = (   0.0000000   0.0000000   0.2531073), wk =   0.0098765
        k(    4) = (   0.0000000   0.1283001   0.0000000), wk =   0.0296296
        k(    5) = (   0.0000000   0.1283001   0.1265537), wk =   0.0296296
        k(    6) = (   0.0000000   0.1283001   0.2531073), wk =   0.0296296
        k(    7) = (   0.0000000   0.2566001   0.0000000), wk =   0.0296296
        k(    8) = (   0.0000000   0.2566001   0.1265537), wk =   0.0296296
        k(    9) = (   0.0000000   0.2566001   0.2531073), wk =   0.0296296
        k(   10) = (   0.0000000   0.3849002   0.0000000), wk =   0.0296296
        k(   11) = (   0.0000000   0.3849002   0.1265537), wk =   0.0296296
        k(   12) = (   0.0000000   0.3849002   0.2531073), wk =   0.0296296
        k(   13) = (   0.0000000   0.5132002   0.0000000), wk =   0.0296296
        k(   14) = (   0.0000000   0.5132002   0.1265537), wk =   0.0296296
        k(   15) = (   0.0000000   0.5132002   0.2531073), wk =   0.0296296
        k(   16) = (   0.1111111   0.1924501   0.0000000), wk =   0.0296296
        k(   17) = (   0.1111111   0.1924501   0.1265537), wk =   0.0592593
        k(   18) = (   0.1111111   0.1924501   0.2531073), wk =   0.0592593
        k(   19) = (   0.1111111   0.3207501   0.0000000), wk =   0.0592593
        k(   20) = (   0.1111111   0.3207501   0.1265537), wk =   0.0592593
        k(   21) = (   0.1111111   0.3207501   0.2531073), wk =   0.0592593
        k(   22) = (   0.1111111   0.4490502   0.0000000), wk =   0.0592593
        k(   23) = (   0.1111111   0.4490502   0.1265537), wk =   0.0592593
        k(   24) = (   0.1111111   0.4490502   0.2531073), wk =   0.0592593
        k(   25) = (   0.1111111   0.5773503   0.0000000), wk =   0.0296296
        k(   26) = (   0.1111111   0.5773503   0.1265537), wk =   0.0592593
        k(   27) = (   0.1111111   0.5773503   0.2531073), wk =   0.0592593
        k(   28) = (   0.2222222   0.3849002   0.0000000), wk =   0.0296296
        k(   29) = (   0.2222222   0.3849002   0.1265537), wk =   0.0592593
        k(   30) = (   0.2222222   0.3849002   0.2531073), wk =   0.0592593
        k(   31) = (   0.2222222   0.5132002   0.0000000), wk =   0.0592593
        k(   32) = (   0.2222222   0.5132002   0.1265537), wk =   0.0592593
        k(   33) = (   0.2222222   0.5132002   0.2531073), wk =   0.0592593
        k(   34) = (   0.3333333   0.5773503   0.0000000), wk =   0.0098765
        k(   35) = (   0.3333333   0.5773503   0.1265537), wk =   0.0197531
        k(   36) = (   0.3333333   0.5773503   0.2531073), wk =   0.0197531
        k(   37) = (   0.0000000   0.1283001  -0.1265537), wk =   0.0296296
        k(   38) = (   0.0000000   0.1283001  -0.2531073), wk =   0.0296296
        k(   39) = (   0.0000000   0.2566001  -0.1265537), wk =   0.0296296
        k(   40) = (   0.0000000   0.2566001  -0.2531073), wk =   0.0296296
        k(   41) = (   0.0000000   0.3849002  -0.1265537), wk =   0.0296296
        k(   42) = (   0.0000000   0.3849002  -0.2531073), wk =   0.0296296
        k(   43) = (   0.0000000   0.5132002  -0.1265537), wk =   0.0296296
        k(   44) = (   0.0000000   0.5132002  -0.2531073), wk =   0.0296296
        k(   45) = (  -0.1111111   0.3207501  -0.1265537), wk =   0.0592593
        k(   46) = (  -0.1111111   0.3207501  -0.2531073), wk =   0.0592593
        k(   47) = (  -0.1111111   0.4490502  -0.1265537), wk =   0.0592593
        k(   48) = (  -0.1111111   0.4490502  -0.2531073), wk =   0.0592593
        k(   49) = (  -0.2222222   0.5132002  -0.1265537), wk =   0.0592593
        k(   50) = (  -0.2222222   0.5132002  -0.2531073), wk =   0.0592593

                       cryst. coord.
        k(    1) = (   0.0000000   0.0000000   0.0000000), wk =   0.0049383
        k(    2) = (   0.0000000   0.0000000   0.2000000), wk =   0.0098765
        k(    3) = (   0.0000000   0.0000000   0.4000000), wk =   0.0098765
        k(    4) = (   0.0000000   0.1111111   0.0000000), wk =   0.0296296
        k(    5) = (   0.0000000   0.1111111   0.2000000), wk =   0.0296296
        k(    6) = (   0.0000000   0.1111111   0.4000000), wk =   0.0296296
        k(    7) = (   0.0000000   0.2222222   0.0000000), wk =   0.0296296
        k(    8) = (   0.0000000   0.2222222   0.2000000), wk =   0.0296296
        k(    9) = (   0.0000000   0.2222222   0.4000000), wk =   0.0296296
        k(   10) = (   0.0000000   0.3333333   0.0000000), wk =   0.0296296
        k(   11) = (   0.0000000   0.3333333   0.2000000), wk =   0.0296296
        k(   12) = (   0.0000000   0.3333333   0.4000000), wk =   0.0296296
        k(   13) = (   0.0000000   0.4444444   0.0000000), wk =   0.0296296
        k(   14) = (   0.0000000   0.4444444   0.2000000), wk =   0.0296296
        k(   15) = (   0.0000000   0.4444444   0.4000000), wk =   0.0296296
        k(   16) = (   0.1111111   0.1111111   0.0000000), wk =   0.0296296
        k(   17) = (   0.1111111   0.1111111   0.2000000), wk =   0.0592593
        k(   18) = (   0.1111111   0.1111111   0.4000000), wk =   0.0592593
        k(   19) = (   0.1111111   0.2222222   0.0000000), wk =   0.0592593
        k(   20) = (   0.1111111   0.2222222   0.2000000), wk =   0.0592593
        k(   21) = (   0.1111111   0.2222222   0.4000000), wk =   0.0592593
        k(   22) = (   0.1111111   0.3333333   0.0000000), wk =   0.0592593
        k(   23) = (   0.1111111   0.3333333   0.2000000), wk =   0.0592593
        k(   24) = (   0.1111111   0.3333333   0.4000000), wk =   0.0592593
        k(   25) = (   0.1111111   0.4444444   0.0000000), wk =   0.0296296
        k(   26) = (   0.1111111   0.4444444   0.2000000), wk =   0.0592593
        k(   27) = (   0.1111111   0.4444444   0.4000000), wk =   0.0592593
        k(   28) = (   0.2222222   0.2222222   0.0000000), wk =   0.0296296
        k(   29) = (   0.2222222   0.2222222   0.2000000), wk =   0.0592593
        k(   30) = (   0.2222222   0.2222222   0.4000000), wk =   0.0592593
        k(   31) = (   0.2222222   0.3333333   0.0000000), wk =   0.0592593
        k(   32) = (   0.2222222   0.3333333   0.2000000), wk =   0.0592593
        k(   33) = (   0.2222222   0.3333333   0.4000000), wk =   0.0592593
        k(   34) = (   0.3333333   0.3333333   0.0000000), wk =   0.0098765
        k(   35) = (   0.3333333   0.3333333   0.2000000), wk =   0.0197531
        k(   36) = (   0.3333333   0.3333333   0.4000000), wk =   0.0197531
        k(   37) = (   0.0000000   0.1111111  -0.2000000), wk =   0.0296296
        k(   38) = (   0.0000000   0.1111111  -0.4000000), wk =   0.0296296
        k(   39) = (   0.0000000   0.2222222  -0.2000000), wk =   0.0296296
        k(   40) = (   0.0000000   0.2222222  -0.4000000), wk =   0.0296296
        k(   41) = (   0.0000000   0.3333333  -0.2000000), wk =   0.0296296
        k(   42) = (   0.0000000   0.3333333  -0.4000000), wk =   0.0296296
        k(   43) = (   0.0000000   0.4444444  -0.2000000), wk =   0.0296296
        k(   44) = (   0.0000000   0.4444444  -0.4000000), wk =   0.0296296
        k(   45) = (  -0.1111111   0.3333333  -0.2000000), wk =   0.0592593
        k(   46) = (  -0.1111111   0.3333333  -0.4000000), wk =   0.0592593
        k(   47) = (  -0.1111111   0.4444444  -0.2000000), wk =   0.0592593
        k(   48) = (  -0.1111111   0.4444444  -0.4000000), wk =   0.0592593
        k(   49) = (  -0.2222222   0.5555556  -0.2000000), wk =   0.0592593
        k(   50) = (  -0.2222222   0.5555556  -0.4000000), wk =   0.0592593

     Dense  grid:   246357 G-vectors     FFT dimensions: (  72,  72, 120)

     Dynamical RAM for                 wfc:       0.39 MB

     Dynamical RAM for     wfc (w. buffer):       5.48 MB

     Dynamical RAM for           str. fact:       0.13 MB

     Dynamical RAM for           local pot:       0.00 MB

     Dynamical RAM for          nlocal pot:       0.47 MB

     Dynamical RAM for                qrad:       4.06 MB

     Dynamical RAM for          rho,v,vnew:       0.43 MB

     Dynamical RAM for               rhoin:       0.14 MB

     Dynamical RAM for            rho*nmix:       1.00 MB

     Dynamical RAM for           G-vectors:       0.27 MB

     Dynamical RAM for          h,s,v(r/c):       0.46 MB

     Dynamical RAM for          <psi|beta>:       0.05 MB

     Dynamical RAM for                 psi:       0.78 MB

     Dynamical RAM for                hpsi:       0.78 MB

     Dynamical RAM for      wfcinit/wfcrot:       0.84 MB

     Estimated static dynamical RAM per process >      11.55 MB

     Estimated max dynamical RAM per process >      14.62 MB

     Estimated total dynamical RAM >       3.25 GB

     Initial potential from superposition of free atoms

     starting charge      59.9965, renormalised to      60.0000
     Starting wfcs are   33 randomized atomic wfcs +   17 random wfcs

     total cpu time spent up to now is       10.2 secs

     per-process dynamical memory:   211.1 Mb

     Self-consistent Calculation

     iteration #  1     ecut=   160.00 Ry     beta= 0.30
     Davidson diagonalization with overlap

---- Real-time Memory Report at c_bands before calling an iterative solver
           334 MiB given to the printing process from OS
           206 MiB allocation reported by mallinfo(arena+hblkhd)
        725301 MiB available memory on the node where the printing process lives
------------------
     ethr =  1.00E-02,  avg # of iterations =  6.8

     Threshold (ethr) on eigenvalues was too large:
     Diagonalizing with lowered threshold

     Davidson diagonalization with overlap

---- Real-time Memory Report at c_bands before calling an iterative solver
           343 MiB given to the printing process from OS
           212 MiB allocation reported by mallinfo(arena+hblkhd)
        725161 MiB available memory on the node where the printing process lives
------------------
     ethr =  1.92E-04,  avg # of iterations =  5.3

     total cpu time spent up to now is       16.1 secs

     WARNING: integrated charge=    60.00013445, expected=    60.00000000

     total energy              =    -683.46418304 Ry
     estimated scf accuracy    <       0.11485633 Ry

     iteration #  2     ecut=   160.00 Ry     beta= 0.30
     Davidson diagonalization with overlap

---- Real-time Memory Report at c_bands before calling an iterative solver
           346 MiB given to the printing process from OS
           212 MiB allocation reported by mallinfo(arena+hblkhd)
        725155 MiB available memory on the node where the printing process lives
------------------
     ethr =  1.91E-04,  avg # of iterations =  1.2

     total cpu time spent up to now is       18.3 secs

     WARNING: integrated charge=    60.00006002, expected=    60.00000000

     total energy              =    -683.45701504 Ry
     estimated scf accuracy    <       0.03137009 Ry

     iteration #  3     ecut=   160.00 Ry     beta= 0.30
     Davidson diagonalization with overlap

---- Real-time Memory Report at c_bands before calling an iterative solver
           347 MiB given to the printing process from OS
           212 MiB allocation reported by mallinfo(arena+hblkhd)
        725143 MiB available memory on the node where the printing process lives
------------------
     ethr =  5.23E-05,  avg # of iterations =  4.0

     total cpu time spent up to now is       21.1 secs

     WARNING: integrated charge=    60.00003705, expected=    60.00000000

     total energy              =    -683.46004115 Ry
     estimated scf accuracy    <       0.00265431 Ry

     iteration #  4     ecut=   160.00 Ry     beta= 0.30
     Davidson diagonalization with overlap

---- Real-time Memory Report at c_bands before calling an iterative solver
           347 MiB given to the printing process from OS
           212 MiB allocation reported by mallinfo(arena+hblkhd)
        725138 MiB available memory on the node where the printing process lives
------------------
     ethr =  4.42E-06,  avg # of iterations =  6.2

     total cpu time spent up to now is       23.1 secs

     WARNING: integrated charge=    60.00001066, expected=    60.00000000

     total energy              =    -683.46006404 Ry
     estimated scf accuracy    <       0.00078855 Ry

     iteration #  5     ecut=   160.00 Ry     beta= 0.30
     Davidson diagonalization with overlap

---- Real-time Memory Report at c_bands before calling an iterative solver
           348 MiB given to the printing process from OS
           212 MiB allocation reported by mallinfo(arena+hblkhd)
        725129 MiB available memory on the node where the printing process lives
------------------
     ethr =  1.31E-06,  avg # of iterations =  1.5

     total cpu time spent up to now is       25.2 secs

     total energy              =    -683.46011065 Ry
     estimated scf accuracy    <       0.00006301 Ry

     iteration #  6     ecut=   160.00 Ry     beta= 0.30
     Davidson diagonalization with overlap

---- Real-time Memory Report at c_bands before calling an iterative solver
           348 MiB given to the printing process from OS
           212 MiB allocation reported by mallinfo(arena+hblkhd)
        725122 MiB available memory on the node where the printing process lives
------------------
     ethr =  1.05E-07,  avg # of iterations =  1.8

     total cpu time spent up to now is       26.9 secs

     total energy              =    -683.46011236 Ry
     estimated scf accuracy    <       0.00000363 Ry

     iteration #  7     ecut=   160.00 Ry     beta= 0.30
     Davidson diagonalization with overlap

---- Real-time Memory Report at c_bands before calling an iterative solver
           349 MiB given to the printing process from OS
           212 MiB allocation reported by mallinfo(arena+hblkhd)
        725116 MiB available memory on the node where the printing process lives
------------------
     ethr =  6.05E-09,  avg # of iterations =  2.0

     total cpu time spent up to now is       28.7 secs

     total energy              =    -683.46011316 Ry
     estimated scf accuracy    <       0.00000036 Ry

     iteration #  8     ecut=   160.00 Ry     beta= 0.30
     Davidson diagonalization with overlap

---- Real-time Memory Report at c_bands before calling an iterative solver
           349 MiB given to the printing process from OS
           213 MiB allocation reported by mallinfo(arena+hblkhd)
        725107 MiB available memory on the node where the printing process lives
------------------
     ethr =  5.96E-10,  avg # of iterations =  2.0

     total cpu time spent up to now is       30.4 secs

     total energy              =    -683.46011319 Ry
     estimated scf accuracy    <       0.00000004 Ry

     iteration #  9     ecut=   160.00 Ry     beta= 0.30
     Davidson diagonalization with overlap

---- Real-time Memory Report at c_bands before calling an iterative solver
           350 MiB given to the printing process from OS
           213 MiB allocation reported by mallinfo(arena+hblkhd)
        725101 MiB available memory on the node where the printing process lives
------------------
     ethr =  6.37E-11,  avg # of iterations =  2.0

     total cpu time spent up to now is       32.0 secs

     End of self-consistent calculation

          k = 0.0000 0.0000 0.0000 ( 30805 PWs)   bands (ev):

   -68.2840 -67.7451 -67.7439 -35.6951 -35.6899 -35.6899 -35.1772 -35.1772
   -35.1743 -35.1715 -35.1715 -35.1688 -14.2110 -14.2110 -14.2085 -14.2085
   -14.1884 -14.1865 -14.1736 -14.1736 -14.1588 -14.1588  -3.7270  -2.7365
     2.9719   7.0105   7.0105   7.7588   7.7588   7.9800   8.0327   8.9078
    11.2120  11.2120  11.8864  12.1595  12.1595  12.5792  13.2988  13.2988
    13.3515  13.3515  13.3822  14.2412  14.7805  19.0292  19.0293  19.7874
    20.2055  20.2062

     occupation numbers 
     1.0000   1.0000   1.0000   1.0000   1.0000   1.0000   1.0000   1.0000
     1.0000   1.0000   1.0000   1.0000   1.0000   1.0000   1.0000   1.0000
     1.0000   1.0000   1.0000   1.0000   1.0000   1.0000   1.0000   1.0000
     1.0000   1.0000   1.0000   1.0123   1.0123   0.6916   0.3716  -0.0000
    -0.0000  -0.0000  -0.0000  -0.0000  -0.0000  -0.0000  -0.0000  -0.0000
    -0.0000  -0.0000  -0.0000  -0.0000  -0.0000  -0.0000  -0.0000  -0.0000
    -0.0000  -0.0000

          k = 0.0000 0.0000 0.1266 ( 30859 PWs)   bands (ev):

   -68.2840 -67.7451 -67.7439 -35.6951 -35.6899 -35.6899 -35.1772 -35.1772
   -35.1743 -35.1715 -35.1715 -35.1688 -14.2117 -14.2117 -14.2078 -14.2078
   -14.1886 -14.1862 -14.1736 -14.1736 -14.1588 -14.1588  -3.6617  -2.8455
     3.2738   6.6529   7.0771   7.0771   7.6856   7.6856   8.7931   9.2597
    11.0051  11.0051  11.7738  12.0595  12.0595  12.3245  13.2915  13.2915
    13.4288  14.2575  14.2575  14.7723  15.2989  17.7405  17.7405  18.4473
    18.7296  18.7296

     occupation numbers 
     1.0000   1.0000   1.0000   1.0000   1.0000   1.0000   1.0000   1.0000
     1.0000   1.0000   1.0000   1.0000   1.0000   1.0000   1.0000   1.0000
     1.0000   1.0000   1.0000   1.0000   1.0000   1.0000   1.0000   1.0000
     1.0000   1.0000   1.0000   1.0000   1.0018   1.0018  -0.0000  -0.0000
    -0.0000  -0.0000  -0.0000  -0.0000  -0.0000  -0.0000  -0.0000  -0.0000
    -0.0000  -0.0000  -0.0000  -0.0000  -0.0000  -0.0000  -0.0000  -0.0000
    -0.0000  -0.0000

          k = 0.0000 0.0000 0.2531 ( 30914 PWs)   bands (ev):

   -68.2840 -67.7451 -67.7439 -35.6951 -35.6899 -35.6899 -35.1772 -35.1772
   -35.1743 -35.1715 -35.1715 -35.1689 -14.2124 -14.2124 -14.2069 -14.2069
   -14.1889 -14.1859 -14.1736 -14.1736 -14.1590 -14.1590  -3.5004  -3.0739
     4.0876   5.2938   7.2576   7.2576   7.4919   7.4919   9.1228   9.4830
    10.8198  10.8198  11.5673  11.7433  11.7433  12.2764  13.8667  14.2056
    14.2056  15.0503  15.4832  15.4832  16.1053  16.2495  16.2495  17.0523
    17.0523  18.2289

     occupation numbers 
     1.0000   1.0000   1.0000   1.0000   1.0000   1.0000   1.0000   1.0000
     1.0000   1.0000   1.0000   1.0000   1.0000   1.0000   1.0000   1.0000
     1.0000   1.0000   1.0000   1.0000   1.0000   1.0000   1.0000   1.0000
     1.0000   1.0000   1.0000   1.0000   1.0000   1.0000  -0.0000  -0.0000
    -0.0000  -0.0000  -0.0000  -0.0000  -0.0000  -0.0000  -0.0000  -0.0000
    -0.0000  -0.0000  -0.0000  -0.0000  -0.0000  -0.0000  -0.0000  -0.0000
    -0.0000  -0.0000

          k = 0.0000 0.1283 0.0000 ( 30829 PWs)   bands (ev):

   -68.2840 -67.7451 -67.7440 -35.6951 -35.6900 -35.6899 -35.1773 -35.1773
   -35.1747 -35.1714 -35.1711 -35.1688 -14.2117 -14.2105 -14.2084 -14.2078
   -14.1879 -14.1860 -14.1732 -14.1732 -14.1593 -14.1584  -3.6563  -2.7026
     3.0827   6.0804   6.6142   6.7447   7.7804   7.9879   9.1520   9.5735
    10.6425  11.3612  11.5608  12.0835  12.1702  12.3460  13.1507  13.2684
    13.5713  14.1701  14.3169  15.1764  15.6361  17.9428  18.6926  19.0590
    19.6875  20.0164

     occupation numbers 
     1.0000   1.0000   1.0000   1.0000   1.0000   1.0000   1.0000   1.0000
     1.0000   1.0000   1.0000   1.0000   1.0000   1.0000   1.0000   1.0000
     1.0000   1.0000   1.0000   1.0000   1.0000   1.0000   1.0000   1.0000
     1.0000   1.0000   1.0000   1.0000   1.0185   0.6460  -0.0000  -0.0000
    -0.0000  -0.0000  -0.0000  -0.0000  -0.0000  -0.0000  -0.0000  -0.0000
    -0.0000  -0.0000  -0.0000  -0.0000  -0.0000  -0.0000  -0.0000  -0.0000
    -0.0000  -0.0000

          k = 0.0000 0.1283 0.1266 ( 30857 PWs)   bands (ev):

   -68.2840 -67.7451 -67.7440 -35.6951 -35.6900 -35.6899 -35.1773 -35.1773
   -35.1747 -35.1714 -35.1711 -35.1688 -14.2126 -14.2105 -14.2077 -14.2075
   -14.1882 -14.1858 -14.1733 -14.1730 -14.1596 -14.1583  -3.5927  -2.8061
     3.3585   6.0775   6.2748   6.8463   7.6102   7.6171   9.5021   9.5509
    10.6830  11.4275  11.5831  11.6814  12.3723  12.6784  12.9966  13.2524
    13.8193  14.4534  15.0495  15.4397  15.6148  17.2269  17.4180  18.3494
    19.3235  19.5458

     occupation numbers 
     1.0000   1.0000   1.0000   1.0000   1.0000   1.0000   1.0000   1.0000
     1.0000   1.0000   1.0000   1.0000   1.0000   1.0000   1.0000   1.0000
     1.0000   1.0000   1.0000   1.0000   1.0000   1.0000   1.0000   1.0000
     1.0000   1.0000   1.0000   1.0000   1.0001   1.0002  -0.0000  -0.0000
    -0.0000  -0.0000  -0.0000  -0.0000  -0.0000  -0.0000  -0.0000  -0.0000
    -0.0000  -0.0000  -0.0000  -0.0000  -0.0000  -0.0000  -0.0000  -0.0000
    -0.0000  -0.0000

          k = 0.0000 0.1283 0.2531 ( 30859 PWs)   bands (ev):

   -68.2840 -67.7451 -67.7440 -35.6951 -35.6900 -35.6899 -35.1773 -35.1773
   -35.1747 -35.1714 -35.1711 -35.1688 -14.2130 -14.2114 -14.2070 -14.2067
   -14.1885 -14.1855 -14.1732 -14.1730 -14.1596 -14.1586  -3.4356  -3.0247
     4.0928   5.1567   6.4965   7.0755   7.0782   7.3238   9.6372   9.8392
    10.6136  11.1907  11.2459  12.0818  12.2908  12.7793  13.5490  13.6429
    14.2353  14.8488  15.4094  15.8502  15.9509  16.3095  17.2364  17.5810
    17.6165  18.6203

     occupation numbers 
     1.0000   1.0000   1.0000   1.0000   1.0000   1.0000   1.0000   1.0000
     1.0000   1.0000   1.0000   1.0000   1.0000   1.0000   1.0000   1.0000
     1.0000   1.0000   1.0000   1.0000   1.0000   1.0000   1.0000   1.0000
     1.0000   1.0000   1.0000   1.0000   1.0000   1.0000  -0.0000  -0.0000
    -0.0000  -0.0000  -0.0000  -0.0000  -0.0000  -0.0000  -0.0000  -0.0000
    -0.0000  -0.0000  -0.0000  -0.0000  -0.0000  -0.0000  -0.0000  -0.0000
    -0.0000  -0.0000

          k = 0.0000 0.2566 0.0000 ( 30836 PWs)   bands (ev):

   -68.2840 -67.7450 -67.7441 -35.6951 -35.6900 -35.6900 -35.1775 -35.1775
   -35.1753 -35.1712 -35.1704 -35.1687 -14.2134 -14.2095 -14.2082 -14.2058
   -14.1870 -14.1849 -14.1719 -14.1719 -14.1608 -14.1574  -3.4583  -2.6211
     3.4069   4.8056   5.5438   6.2946   7.5542   7.6468   9.2129   9.8314
    10.8529  11.3400  11.6767  11.8096  12.4530  12.8041  13.2885  14.1844
    15.0081  15.3123  15.6342  16.1376  16.8948  17.0140  18.1753  18.5244
    19.1639  19.7162

     occupation numbers 
     1.0000   1.0000   1.0000   1.0000   1.0000   1.0000   1.0000   1.0000
     1.0000   1.0000   1.0000   1.0000   1.0000   1.0000   1.0000   1.0000
     1.0000   1.0000   1.0000   1.0000   1.0000   1.0000   1.0000   1.0000
     1.0000   1.0000   1.0000   1.0000   1.0000   1.0005  -0.0000  -0.0000
    -0.0000  -0.0000  -0.0000  -0.0000  -0.0000  -0.0000  -0.0000  -0.0000
    -0.0000  -0.0000  -0.0000  -0.0000  -0.0000  -0.0000  -0.0000  -0.0000
    -0.0000  -0.0000

          k = 0.0000 0.2566 0.1266 ( 30828 PWs)   bands (ev):

   -68.2840 -67.7450 -67.7441 -35.6951 -35.6900 -35.6900 -35.1775 -35.1775
   -35.1753 -35.1712 -35.1704 -35.1687 -14.2141 -14.2086 -14.2076 -14.2067
   -14.1872 -14.1847 -14.1720 -14.1713 -14.1611 -14.1573  -3.4005  -2.7072
     3.5440   4.9651   5.3718   6.3993   7.4232   7.4256   8.8001   9.8490
    11.2445  11.6481  11.9373  11.9563  12.3049  12.9481  13.4906  13.8311
    14.3409  15.0606  15.9321  16.2025  16.9201  16.9556  18.1247  18.3678
    19.4949  20.3999

     occupation numbers 
     1.0000   1.0000   1.0000   1.0000   1.0000   1.0000   1.0000   1.0000
     1.0000   1.0000   1.0000   1.0000   1.0000   1.0000   1.0000   1.0000
     1.0000   1.0000   1.0000   1.0000   1.0000   1.0000   1.0000   1.0000
     1.0000   1.0000   1.0000   1.0000   1.0000   1.0000  -0.0000  -0.0000
    -0.0000  -0.0000  -0.0000  -0.0000  -0.0000  -0.0000  -0.0000  -0.0000
    -0.0000  -0.0000  -0.0000  -0.0000  -0.0000  -0.0000  -0.0000  -0.0000
    -0.0000  -0.0000

          k = 0.0000 0.2566 0.2531 ( 30812 PWs)   bands (ev):

   -68.2840 -67.7450 -67.7441 -35.6951 -35.6900 -35.6900 -35.1775 -35.1775
   -35.1753 -35.1712 -35.1704 -35.1687 -14.2141 -14.2092 -14.2076 -14.2059
   -14.1877 -14.1845 -14.1718 -14.1713 -14.1610 -14.1578  -3.2577  -2.8953
     3.9337   4.6454   5.7491   6.6437   6.6805   7.0542   8.8185  10.0306
    11.0914  11.9233  12.0866  12.2227  12.5905  13.0215  13.1226  13.8391
    14.4711  15.0552  15.4487  16.2073  16.5484  17.4743  18.4719  18.7794
    18.8440  19.2653

     occupation numbers 
     1.0000   1.0000   1.0000   1.0000   1.0000   1.0000   1.0000   1.0000
     1.0000   1.0000   1.0000   1.0000   1.0000   1.0000   1.0000   1.0000
     1.0000   1.0000   1.0000   1.0000   1.0000   1.0000   1.0000   1.0000
     1.0000   1.0000   1.0000   1.0000   1.0000   1.0000  -0.0000  -0.0000
    -0.0000  -0.0000  -0.0000  -0.0000  -0.0000  -0.0000  -0.0000  -0.0000
    -0.0000  -0.0000  -0.0000  -0.0000  -0.0000  -0.0000  -0.0000  -0.0000
    -0.0000  -0.0000

          k = 0.0000 0.3849 0.0000 ( 30826 PWs)   bands (ev):

   -68.2840 -67.7449 -67.7442 -35.6951 -35.6901 -35.6900 -35.1777 -35.1777
   -35.1759 -35.1710 -35.1697 -35.1687 -14.2153 -14.2086 -14.2083 -14.2036
   -14.1863 -14.1835 -14.1703 -14.1697 -14.1626 -14.1562  -3.1809  -2.5510
     3.7575   3.9893   4.7016   5.9291   6.7785   7.4280   8.6136   9.8022
    10.4780  11.0448  12.0808  12.7953  13.5068  13.6315  14.6874  15.1188
    15.4515  15.6166  16.4683  16.5926  17.7673  17.8401  18.7352  18.8131
    19.1267  19.5093

     occupation numbers 
     1.0000   1.0000   1.0000   1.0000   1.0000   1.0000   1.0000   1.0000
     1.0000   1.0000   1.0000   1.0000   1.0000   1.0000   1.0000   1.0000
     1.0000   1.0000   1.0000   1.0000   1.0000   1.0000   1.0000   1.0000
     1.0000   1.0000   1.0000   1.0000   1.0000   1.0000  -0.0000  -0.0000
    -0.0000  -0.0000  -0.0000  -0.0000  -0.0000  -0.0000  -0.0000  -0.0000
    -0.0000  -0.0000  -0.0000  -0.0000  -0.0000  -0.0000  -0.0000  -0.0000
    -0.0000  -0.0000

          k = 0.0000 0.3849 0.1266 ( 30806 PWs)   bands (ev):

   -68.2840 -67.7449 -67.7442 -35.6951 -35.6901 -35.6900 -35.1777 -35.1777
   -35.1759 -35.1710 -35.1698 -35.1687 -14.2156 -14.2080 -14.2076 -14.2045
   -14.1867 -14.1833 -14.1703 -14.1689 -14.1631 -14.1562  -3.1348  -2.6088
     3.4478   4.3110   4.8213   6.0302   6.9678   7.1923   8.2803   9.4360
    11.1663  11.4580  11.5467  13.1296  13.4654  13.5142  14.1440  14.7461
    14.8859  16.0953  16.7705  16.9353  17.5585  17.8010  18.8566  19.1174
    19.3669  19.8491

     occupation numbers 
     1.0000   1.0000   1.0000   1.0000   1.0000   1.0000   1.0000   1.0000
     1.0000   1.0000   1.0000   1.0000   1.0000   1.0000   1.0000   1.0000
     1.0000   1.0000   1.0000   1.0000   1.0000   1.0000   1.0000   1.0000
     1.0000   1.0000   1.0000   1.0000   1.0000   1.0000  -0.0087  -0.0000
    -0.0000  -0.0000  -0.0000  -0.0000  -0.0000  -0.0000  -0.0000  -0.0000
    -0.0000  -0.0000  -0.0000  -0.0000  -0.0000  -0.0000  -0.0000  -0.0000
    -0.0000  -0.0000

          k = 0.0000 0.3849 0.2531 ( 30768 PWs)   bands (ev):

   -68.2840 -67.7449 -67.7442 -35.6951 -35.6901 -35.6900 -35.1777 -35.1777
   -35.1759 -35.1710 -35.1697 -35.1687 -14.2152 -14.2085 -14.2071 -14.2049
   -14.1872 -14.1830 -14.1699 -14.1688 -14.1628 -14.1568  -3.0196  -2.7443
     3.4244   3.9762   5.6706   6.2789   6.6795   6.7837   8.1980   9.6427
    10.5447  11.1198  12.4882  13.1380  13.2342  13.6960  14.0297  14.3553
    15.0006  15.4993  16.1569  17.3610  18.3848  18.7734  19.2143  19.6139
    19.9246  19.9889

     occupation numbers 
     1.0000   1.0000   1.0000   1.0000   1.0000   1.0000   1.0000   1.0000
     1.0000   1.0000   1.0000   1.0000   1.0000   1.0000   1.0000   1.0000
     1.0000   1.0000   1.0000   1.0000   1.0000   1.0000   1.0000   1.0000
     1.0000   1.0000   1.0000   1.0000   1.0000   1.0000  -0.0328  -0.0000
    -0.0000  -0.0000  -0.0000  -0.0000  -0.0000  -0.0000  -0.0000  -0.0000
    -0.0000  -0.0000  -0.0000  -0.0000  -0.0000  -0.0000  -0.0000  -0.0000
    -0.0000  -0.0000

          k = 0.0000 0.5132 0.0000 ( 30812 PWs)   bands (ev):

   -68.2840 -67.7447 -67.7443 -35.6951 -35.6901 -35.6900 -35.1779 -35.1778
   -35.1763 -35.1709 -35.1692 -35.1688 -14.2165 -14.2083 -14.2082 -14.2021
   -14.1861 -14.1824 -14.1691 -14.1674 -14.1645 -14.1553  -2.9309  -2.5541
     3.2727   4.2209   4.5430   5.7325   5.9730   7.2839   8.3171   9.6830
    10.2610  10.8719  12.7382  13.0972  14.1607  14.5198  15.0877  15.3446
    16.1852  16.4551  17.2596  17.4922  17.8072  18.0093  18.8091  18.8998
    18.9804  19.2970

     occupation numbers 
     1.0000   1.0000   1.0000   1.0000   1.0000   1.0000   1.0000   1.0000
     1.0000   1.0000   1.0000   1.0000   1.0000   1.0000   1.0000   1.0000
     1.0000   1.0000   1.0000   1.0000   1.0000   1.0000   1.0000   1.0000
     1.0000   1.0000   1.0000   1.0000   1.0000   1.0000  -0.0034  -0.0000
    -0.0000  -0.0000  -0.0000  -0.0000  -0.0000  -0.0000  -0.0000  -0.0000
    -0.0000  -0.0000  -0.0000  -0.0000  -0.0000  -0.0000  -0.0000  -0.0000
    -0.0000  -0.0000

          k = 0.0000 0.5132 0.1266 ( 30797 PWs)   bands (ev):

   -68.2840 -67.7447 -67.7443 -35.6951 -35.6901 -35.6900 -35.1779 -35.1778
   -35.1763 -35.1709 -35.1692 -35.1688 -14.2164 -14.2085 -14.2075 -14.2027
   -14.1866 -14.1822 -14.1690 -14.1665 -14.1651 -14.1556  -2.8997  -2.5835
     3.1172   3.9151   5.0230   5.8287   6.3918   7.0540   8.1580   9.1625
    10.9896  11.3150  11.5648  12.2761  14.7325  14.9171  15.4005  15.8179
    15.9446  16.2216  16.9374  17.0557  17.7499  18.1658  18.8046  18.9367
    19.2332  19.3936

     occupation numbers 
     1.0000   1.0000   1.0000   1.0000   1.0000   1.0000   1.0000   1.0000
     1.0000   1.0000   1.0000   1.0000   1.0000   1.0000   1.0000   1.0000
     1.0000   1.0000   1.0000   1.0000   1.0000   1.0000   1.0000   1.0000
     1.0000   1.0000   1.0000   1.0000   1.0000   1.0000  -0.0313  -0.0000
    -0.0000  -0.0000  -0.0000  -0.0000  -0.0000  -0.0000  -0.0000  -0.0000
    -0.0000  -0.0000  -0.0000  -0.0000  -0.0000  -0.0000  -0.0000  -0.0000
    -0.0000  -0.0000

          k = 0.0000 0.5132 0.2531 ( 30780 PWs)   bands (ev):

   -68.2840 -67.7447 -67.7443 -35.6951 -35.6901 -35.6900 -35.1779 -35.1778
   -35.1763 -35.1709 -35.1692 -35.1688 -14.2158 -14.2093 -14.2063 -14.2037
   -14.1872 -14.1819 -14.1685 -14.1662 -14.1648 -14.1562  -2.8218  -2.6597
     3.0207   3.5268   5.8500   6.0770   6.6309   6.7178   8.0286   9.2979
    10.1753  10.3875  12.2941  12.9693  13.7294  14.3956  15.5445  15.7342
    16.0090  16.3404  17.0950  17.9092  18.0127  18.6215  18.8774  18.8803
    19.2534  20.5825

     occupation numbers 
     1.0000   1.0000   1.0000   1.0000   1.0000   1.0000   1.0000   1.0000
     1.0000   1.0000   1.0000   1.0000   1.0000   1.0000   1.0000   1.0000
     1.0000   1.0000   1.0000   1.0000   1.0000   1.0000   1.0000   1.0000
     1.0000   1.0000   1.0000   1.0000   1.0000   1.0000   0.3962  -0.0000
    -0.0000  -0.0000  -0.0000  -0.0000  -0.0000  -0.0000  -0.0000  -0.0000
    -0.0000  -0.0000  -0.0000  -0.0000  -0.0000  -0.0000  -0.0000  -0.0000
    -0.0000  -0.0000

          k = 0.1111 0.1925 0.0000 ( 30819 PWs)   bands (ev):

   -68.2840 -67.7450 -67.7440 -35.6951 -35.6900 -35.6900 -35.1775 -35.1774
   -35.1752 -35.1713 -35.1706 -35.1687 -14.2125 -14.2105 -14.2072 -14.2072
   -14.1872 -14.1853 -14.1724 -14.1722 -14.1602 -14.1578  -3.5217  -2.6447
     3.3006   5.3672   5.4497   6.6118   7.4322   7.7204   9.9207  10.1446
    10.1955  11.1395  11.1702  12.2492  12.4994  12.5672  13.1817  13.8908
    14.2473  14.8772  15.5655  16.2821  16.5384  17.0807  18.0529  18.6335
    18.7393  20.4877

     occupation numbers 
     1.0000   1.0000   1.0000   1.0000   1.0000   1.0000   1.0000   1.0000
     1.0000   1.0000   1.0000   1.0000   1.0000   1.0000   1.0000   1.0000
     1.0000   1.0000   1.0000   1.0000   1.0000   1.0000   1.0000   1.0000
     1.0000   1.0000   1.0000   1.0000   1.0000   1.0049  -0.0000  -0.0000
    -0.0000  -0.0000  -0.0000  -0.0000  -0.0000  -0.0000  -0.0000  -0.0000
    -0.0000  -0.0000  -0.0000  -0.0000  -0.0000  -0.0000  -0.0000  -0.0000
    -0.0000  -0.0000

          k = 0.1111 0.1925 0.1266 ( 30847 PWs)   bands (ev):

   -68.2840 -67.7450 -67.7440 -35.6951 -35.6900 -35.6900 -35.1775 -35.1774
   -35.1752 -35.1713 -35.1706 -35.1687 -14.2129 -14.2102 -14.2078 -14.2063
   -14.1875 -14.1851 -14.1725 -14.1719 -14.1603 -14.1579  -3.4615  -2.7373
     3.5163   5.2836   5.5318   6.4757   7.2725   7.5803   9.6186  10.1747
    10.5314  11.1049  11.4415  12.0192  12.3761  12.7839  13.6469  14.2005
    14.5642  14.7362  15.3481  15.5817  16.3877  17.0499  17.8071  18.9751
    19.0691  19.8215

     occupation numbers 
     1.0000   1.0000   1.0000   1.0000   1.0000   1.0000   1.0000   1.0000
     1.0000   1.0000   1.0000   1.0000   1.0000   1.0000   1.0000   1.0000
     1.0000   1.0000   1.0000   1.0000   1.0000   1.0000   1.0000   1.0000
     1.0000   1.0000   1.0000   1.0000   1.0000   1.0000  -0.0000  -0.0000
    -0.0000  -0.0000  -0.0000  -0.0000  -0.0000  -0.0000  -0.0000  -0.0000
    -0.0000  -0.0000  -0.0000  -0.0000  -0.0000  -0.0000  -0.0000  -0.0000
    -0.0000  -0.0000

          k = 0.1111 0.1925 0.2531 ( 30830 PWs)   bands (ev):

   -68.2840 -67.7450 -67.7440 -35.6951 -35.6900 -35.6900 -35.1775 -35.1774
   -35.1752 -35.1713 -35.1706 -35.1687 -14.2133 -14.2105 -14.2074 -14.2059
   -14.1878 -14.1849 -14.1723 -14.1719 -14.1603 -14.1582  -3.3136  -2.9357
     4.0605   4.7624   6.0059   6.4516   6.9279   6.9542   9.6721  10.3681
    10.6859  10.9248  11.6554  12.2000  12.8721  13.0617  13.1305  14.0136
    14.5108  15.0564  15.2652  15.8322  16.5580  17.1303  17.3248  18.2739
    18.9351  19.2480

     occupation numbers 
     1.0000   1.0000   1.0000   1.0000   1.0000   1.0000   1.0000   1.0000
     1.0000   1.0000   1.0000   1.0000   1.0000   1.0000   1.0000   1.0000
     1.0000   1.0000   1.0000   1.0000   1.0000   1.0000   1.0000   1.0000
     1.0000   1.0000   1.0000   1.0000   1.0000   1.0000  -0.0000  -0.0000
    -0.0000  -0.0000  -0.0000  -0.0000  -0.0000  -0.0000  -0.0000  -0.0000
    -0.0000  -0.0000  -0.0000  -0.0000  -0.0000  -0.0000  -0.0000  -0.0000
    -0.0000  -0.0000

          k = 0.1111 0.3208 0.0000 ( 30812 PWs)   bands (ev):

   -68.2840 -67.7449 -67.7441 -35.6951 -35.6900 -35.6900 -35.1777 -35.1776
   -35.1758 -35.1711 -35.1700 -35.1687 -14.2140 -14.2102 -14.2070 -14.2049
   -14.1862 -14.1841 -14.1713 -14.1702 -14.1616 -14.1569  -3.2818  -2.5678
     3.7145   4.3173   4.8010   5.9593   7.0625   7.1328   9.3743  10.2477
    10.5016  11.1111  11.7102  12.1786  13.2213  13.3483  14.0717  14.7204
    15.5382  15.7220  16.0403  16.3061  17.2243  17.6532  18.2415  18.3096
    19.3543  19.7743

     occupation numbers 
     1.0000   1.0000   1.0000   1.0000   1.0000   1.0000   1.0000   1.0000
     1.0000   1.0000   1.0000   1.0000   1.0000   1.0000   1.0000   1.0000
     1.0000   1.0000   1.0000   1.0000   1.0000   1.0000   1.0000   1.0000
     1.0000   1.0000   1.0000   1.0000   1.0000   1.0000  -0.0000  -0.0000
    -0.0000  -0.0000  -0.0000  -0.0000  -0.0000  -0.0000  -0.0000  -0.0000
    -0.0000  -0.0000  -0.0000  -0.0000  -0.0000  -0.0000  -0.0000  -0.0000
    -0.0000  -0.0000

          k = 0.1111 0.3208 0.1266 ( 30841 PWs)   bands (ev):

   -68.2840 -67.7449 -67.7441 -35.6951 -35.6900 -35.6900 -35.1777 -35.1776
   -35.1758 -35.1711 -35.1700 -35.1687 -14.2144 -14.2094 -14.2065 -14.2057
   -14.1865 -14.1840 -14.1712 -14.1698 -14.1619 -14.1570  -3.2304  -2.6375
     3.6325   4.4768   4.9569   5.8678   6.8048   7.3433   9.0193  10.1606
    10.7095  11.4631  11.5713  12.2207  13.1030  13.7990  13.9807  14.1590
    15.1337  15.6316  15.9027  16.5085  17.3046  18.3351  18.4817  19.0049
    19.2403  19.8413

     occupation numbers 
     1.0000   1.0000   1.0000   1.0000   1.0000   1.0000   1.0000   1.0000
     1.0000   1.0000   1.0000   1.0000   1.0000   1.0000   1.0000   1.0000
     1.0000   1.0000   1.0000   1.0000   1.0000   1.0000   1.0000   1.0000
     1.0000   1.0000   1.0000   1.0000   1.0000   1.0000  -0.0000  -0.0000
    -0.0000  -0.0000  -0.0000  -0.0000  -0.0000  -0.0000  -0.0000  -0.0000
    -0.0000  -0.0000  -0.0000  -0.0000  -0.0000  -0.0000  -0.0000  -0.0000
    -0.0000  -0.0000

          k = 0.1111 0.3208 0.2531 ( 30813 PWs)   bands (ev):

   -68.2840 -67.7449 -67.7441 -35.6951 -35.6900 -35.6900 -35.1777 -35.1776
   -35.1758 -35.1711 -35.1700 -35.1687 -14.2142 -14.2092 -14.2067 -14.2058
   -14.1870 -14.1838 -14.1708 -14.1696 -14.1617 -14.1575  -3.1036  -2.7940
     3.7314   4.1966   5.6450   6.0502   6.3723   6.9309   9.0336  10.4344
    10.7476  11.4585  11.7379  12.1468  12.2515  13.7368  14.3047  14.4566
    14.8370  15.4190  16.2235  16.9048  17.5878  17.7462  18.3622  19.3048
    19.7613  20.1432

     occupation numbers 
     1.0000   1.0000   1.0000   1.0000   1.0000   1.0000   1.0000   1.0000
     1.0000   1.0000   1.0000   1.0000   1.0000   1.0000   1.0000   1.0000
     1.0000   1.0000   1.0000   1.0000   1.0000   1.0000   1.0000   1.0000
     1.0000   1.0000   1.0000   1.0000   1.0000   1.0000  -0.0000  -0.0000
    -0.0000  -0.0000  -0.0000  -0.0000  -0.0000  -0.0000  -0.0000  -0.0000
    -0.0000  -0.0000  -0.0000  -0.0000  -0.0000  -0.0000  -0.0000  -0.0000
    -0.0000  -0.0000

          k = 0.1111 0.4491 0.0000 ( 30803 PWs)   bands (ev):

   -68.2840 -67.7448 -67.7443 -35.6951 -35.6901 -35.6900 -35.1779 -35.1776
   -35.1763 -35.1709 -35.1694 -35.1687 -14.2154 -14.2093 -14.2074 -14.2029
   -14.1857 -14.1829 -14.1704 -14.1677 -14.1632 -14.1560  -3.0069  -2.5386
     3.5381   4.3215   4.3795   5.4294   6.3348   6.8002   8.9261   9.8319
    10.4712  11.5200  12.5347  13.0277  13.3067  14.5544  14.6426  15.2008
    15.6699  16.1453  16.3033  16.8808  17.6276  18.2118  18.6689  19.2329
    19.4638  19.8913

     occupation numbers 
     1.0000   1.0000   1.0000   1.0000   1.0000   1.0000   1.0000   1.0000
     1.0000   1.0000   1.0000   1.0000   1.0000   1.0000   1.0000   1.0000
     1.0000   1.0000   1.0000   1.0000   1.0000   1.0000   1.0000   1.0000
     1.0000   1.0000   1.0000   1.0000   1.0000   1.0000  -0.0000  -0.0000
    -0.0000  -0.0000  -0.0000  -0.0000  -0.0000  -0.0000  -0.0000  -0.0000
    -0.0000  -0.0000  -0.0000  -0.0000  -0.0000  -0.0000  -0.0000  -0.0000
    -0.0000  -0.0000

          k = 0.1111 0.4491 0.1266 ( 30791 PWs)   bands (ev):

   -68.2840 -67.7448 -67.7443 -35.6951 -35.6901 -35.6900 -35.1779 -35.1776
   -35.1763 -35.1709 -35.1694 -35.1687 -14.2155 -14.2087 -14.2072 -14.2037
   -14.1861 -14.1828 -14.1702 -14.1671 -14.1636 -14.1562  -2.9701  -2.5778
     3.3373   4.0640   4.9290   5.4594   6.4727   6.7964   8.7531   9.8941
    10.4100  11.5184  12.0547  12.9500  13.2095  14.0688  14.8320  15.2135
    15.8294  16.3697  16.9273  17.3263  17.4003  18.3858  18.5717  18.8782
    19.5365  20.1865

     occupation numbers 
     1.0000   1.0000   1.0000   1.0000   1.0000   1.0000   1.0000   1.0000
     1.0000   1.0000   1.0000   1.0000   1.0000   1.0000   1.0000   1.0000
     1.0000   1.0000   1.0000   1.0000   1.0000   1.0000   1.0000   1.0000
     1.0000   1.0000   1.0000   1.0000   1.0000   1.0000  -0.0000  -0.0000
    -0.0000  -0.0000  -0.0000  -0.0000  -0.0000  -0.0000  -0.0000  -0.0000
    -0.0000  -0.0000  -0.0000  -0.0000  -0.0000  -0.0000  -0.0000  -0.0000
    -0.0000  -0.0000

          k = 0.1111 0.4491 0.2531 ( 30787 PWs)   bands (ev):

   -68.2840 -67.7448 -67.7443 -35.6951 -35.6901 -35.6900 -35.1779 -35.1776
   -35.1763 -35.1709 -35.1694 -35.1687 -14.2149 -14.2089 -14.2067 -14.2045
   -14.1866 -14.1826 -14.1696 -14.1669 -14.1633 -14.1569  -2.8788  -2.6744
     3.2518   3.7201   5.3397   6.0157   6.1772   7.0162   8.5584  10.0168
    10.4242  10.8688  11.5632  12.5617  13.5420  14.2483  14.3517  15.4085
    16.0650  16.5487  16.7459  17.8205  18.1502  18.5427  19.1422  19.3192
    19.8388  19.9961

     occupation numbers 
     1.0000   1.0000   1.0000   1.0000   1.0000   1.0000   1.0000   1.0000
     1.0000   1.0000   1.0000   1.0000   1.0000   1.0000   1.0000   1.0000
     1.0000   1.0000   1.0000   1.0000   1.0000   1.0000   1.0000   1.0000
     1.0000   1.0000   1.0000   1.0000   1.0000   1.0000  -0.0000  -0.0000
    -0.0000  -0.0000  -0.0000  -0.0000  -0.0000  -0.0000  -0.0000  -0.0000
    -0.0000  -0.0000  -0.0000  -0.0000  -0.0000  -0.0000  -0.0000  -0.0000
    -0.0000  -0.0000

          k = 0.1111 0.5774 0.0000 ( 30778 PWs)   bands (ev):

   -68.2840 -67.7447 -67.7444 -35.6951 -35.6901 -35.6900 -35.1780 -35.1777
   -35.1765 -35.1709 -35.1691 -35.1688 -14.2160 -14.2085 -14.2081 -14.2022
   -14.1856 -14.1823 -14.1701 -14.1659 -14.1646 -14.1557  -2.8522  -2.5655
     3.2762   4.2137   4.7661   5.2287   5.8106   6.7025   8.7839   9.6892
    10.4269  11.5968  13.0762  13.2616  13.9420  14.4719  14.8096  14.8884
    16.1295  16.1809  16.8460  17.0397  18.1435  18.4278  18.6540  18.6570
    19.3530  19.8747

     occupation numbers 
     1.0000   1.0000   1.0000   1.0000   1.0000   1.0000   1.0000   1.0000
     1.0000   1.0000   1.0000   1.0000   1.0000   1.0000   1.0000   1.0000
     1.0000   1.0000   1.0000   1.0000   1.0000   1.0000   1.0000   1.0000
     1.0000   1.0000   1.0000   1.0000   1.0000   1.0000  -0.0000  -0.0000
    -0.0000  -0.0000  -0.0000  -0.0000  -0.0000  -0.0000  -0.0000  -0.0000
    -0.0000  -0.0000  -0.0000  -0.0000  -0.0000  -0.0000  -0.0000  -0.0000
    -0.0000  -0.0000

          k = 0.1111 0.5774 0.1266 ( 30777 PWs)   bands (ev):

   -68.2840 -67.7447 -67.7444 -35.6951 -35.6901 -35.6900 -35.1780 -35.1777
   -35.1765 -35.1709 -35.1691 -35.1688 -14.2156 -14.2085 -14.2080 -14.2026
   -14.1860 -14.1821 -14.1697 -14.1657 -14.1645 -14.1561  -2.8253  -2.5880
     3.1671   3.8953   4.9090   5.5647   6.2442   6.5149   8.7831   9.7283
    10.3593  11.3216  11.9256  12.8740  14.2817  14.8912  15.1384  15.6364
    16.0056  16.2526  16.5613  17.0709  18.1374  18.4779  18.8194  19.1201
    19.5238  19.6981

     occupation numbers 
     1.0000   1.0000   1.0000   1.0000   1.0000   1.0000   1.0000   1.0000
     1.0000   1.0000   1.0000   1.0000   1.0000   1.0000   1.0000   1.0000
     1.0000   1.0000   1.0000   1.0000   1.0000   1.0000   1.0000   1.0000
     1.0000   1.0000   1.0000   1.0000   1.0000   1.0000  -0.0000  -0.0000
    -0.0000  -0.0000  -0.0000  -0.0000  -0.0000  -0.0000  -0.0000  -0.0000
    -0.0000  -0.0000  -0.0000  -0.0000  -0.0000  -0.0000  -0.0000  -0.0000
    -0.0000  -0.0000

          k = 0.1111 0.5774 0.2531 ( 30776 PWs)   bands (ev):

   -68.2840 -67.7447 -67.7444 -35.6951 -35.6901 -35.6900 -35.1780 -35.1777
   -35.1765 -35.1709 -35.1691 -35.1688 -14.2150 -14.2092 -14.2069 -14.2036
   -14.1866 -14.1819 -14.1691 -14.1653 -14.1645 -14.1568  -2.7620  -2.6444
     3.0658   3.5087   5.1905   5.9156   6.3637   6.9849   8.6147   9.5780
    10.1621  10.7527  11.3329  12.8488  14.0637  15.0993  15.2370  15.5902
    15.8592  15.9522  17.5437  18.1194  18.3874  18.8012  19.0361  19.2209
    19.7538  20.1261

     occupation numbers 
     1.0000   1.0000   1.0000   1.0000   1.0000   1.0000   1.0000   1.0000
     1.0000   1.0000   1.0000   1.0000   1.0000   1.0000   1.0000   1.0000
     1.0000   1.0000   1.0000   1.0000   1.0000   1.0000   1.0000   1.0000
     1.0000   1.0000   1.0000   1.0000   1.0000   1.0000  -0.0000  -0.0000
    -0.0000  -0.0000  -0.0000  -0.0000  -0.0000  -0.0000  -0.0000  -0.0000
    -0.0000  -0.0000  -0.0000  -0.0000  -0.0000  -0.0000  -0.0000  -0.0000
    -0.0000  -0.0000

          k = 0.2222 0.3849 0.0000 ( 30789 PWs)   bands (ev):

   -68.2840 -67.7448 -67.7443 -35.6951 -35.6901 -35.6900 -35.1780 -35.1775
   -35.1763 -35.1709 -35.1695 -35.1687 -14.2141 -14.2104 -14.2066 -14.2038
   -14.1851 -14.1834 -14.1712 -14.1678 -14.1623 -14.1567  -3.0375  -2.5322
     3.8800   4.2237   4.2574   5.3313   6.3306   6.5416   8.9950  10.8919
    10.9347  11.4787  11.8388  12.7504  13.4589  13.9677  14.5722  15.1091
    15.6396  16.0439  16.0722  16.5338  16.8937  18.2319  18.8212  19.0990
    19.6580  20.1287

     occupation numbers 
     1.0000   1.0000   1.0000   1.0000   1.0000   1.0000   1.0000   1.0000
     1.0000   1.0000   1.0000   1.0000   1.0000   1.0000   1.0000   1.0000
     1.0000   1.0000   1.0000   1.0000   1.0000   1.0000   1.0000   1.0000
     1.0000   1.0000   1.0000   1.0000   1.0000   1.0000  -0.0000  -0.0000
    -0.0000  -0.0000  -0.0000  -0.0000  -0.0000  -0.0000  -0.0000  -0.0000
    -0.0000  -0.0000  -0.0000  -0.0000  -0.0000  -0.0000  -0.0000  -0.0000
    -0.0000  -0.0000

          k = 0.2222 0.3849 0.1266 ( 30798 PWs)   bands (ev):

   -68.2840 -67.7448 -67.7443 -35.6951 -35.6901 -35.6900 -35.1780 -35.1775
   -35.1763 -35.1709 -35.1695 -35.1687 -14.2139 -14.2101 -14.2067 -14.2041
   -14.1854 -14.1834 -14.1709 -14.1675 -14.1622 -14.1571  -2.9971  -2.5777
     3.7174   3.8887   5.0129   5.1328   6.0817   6.9695   9.3890  10.0457
    11.0219  11.3269  11.7789  12.7629  12.9754  13.9080  14.4786  14.9940
    15.9396  16.1432  16.3996  17.2305  17.8250  18.2163  18.7054  19.0713
    19.4174  19.7528

     occupation numbers 
     1.0000   1.0000   1.0000   1.0000   1.0000   1.0000   1.0000   1.0000
     1.0000   1.0000   1.0000   1.0000   1.0000   1.0000   1.0000   1.0000
     1.0000   1.0000   1.0000   1.0000   1.0000   1.0000   1.0000   1.0000
     1.0000   1.0000   1.0000   1.0000   1.0000   1.0000  -0.0000  -0.0000
    -0.0000  -0.0000  -0.0000  -0.0000  -0.0000  -0.0000  -0.0000  -0.0000
    -0.0000  -0.0000  -0.0000  -0.0000  -0.0000  -0.0000  -0.0000  -0.0000
    -0.0000  -0.0000

          k = 0.2222 0.3849 0.2531 ( 30825 PWs)   bands (ev):

   -68.2840 -67.7448 -67.7443 -35.6951 -35.6901 -35.6900 -35.1780 -35.1775
   -35.1763 -35.1709 -35.1695 -35.1687 -14.2136 -14.2097 -14.2065 -14.2051
   -14.1859 -14.1833 -14.1703 -14.1673 -14.1621 -14.1577  -2.9002  -2.6829
     3.5906   3.7102   5.0403   5.5974   6.1483   7.0879   9.4191  10.1465
    10.8930  11.2399  11.7484  11.9230  12.2189  13.0794  15.3703  15.8863
    16.2053  16.4238  17.1298  17.5709  17.9132  18.1747  18.5084  18.8217
    19.4762  19.9792

     occupation numbers 
     1.0000   1.0000   1.0000   1.0000   1.0000   1.0000   1.0000   1.0000
     1.0000   1.0000   1.0000   1.0000   1.0000   1.0000   1.0000   1.0000
     1.0000   1.0000   1.0000   1.0000   1.0000   1.0000   1.0000   1.0000
     1.0000   1.0000   1.0000   1.0000   1.0000   1.0000  -0.0000  -0.0000
    -0.0000  -0.0000  -0.0000  -0.0000  -0.0000  -0.0000  -0.0000  -0.0000
    -0.0000  -0.0000  -0.0000  -0.0000  -0.0000  -0.0000  -0.0000  -0.0000
    -0.0000  -0.0000

          k = 0.2222 0.5132 0.0000 ( 30792 PWs)   bands (ev):

   -68.2840 -67.7447 -67.7444 -35.6951 -35.6901 -35.6900 -35.1781 -35.1774
   -35.1767 -35.1708 -35.1691 -35.1688 -14.2145 -14.2094 -14.2076 -14.2028
   -14.1845 -14.1828 -14.1714 -14.1653 -14.1633 -14.1568  -2.8114  -2.5629
     3.5147   4.2503   4.6839   4.8693   5.8911   5.9424   8.5548  10.7309
    11.7332  12.0960  12.7639  13.2169  13.7690  14.1171  14.5268  14.6391
    15.1926  15.7082  16.0496  16.6331  16.9825  18.3552  18.8868  19.8984
    20.4735  20.5775

     occupation numbers 
     1.0000   1.0000   1.0000   1.0000   1.0000   1.0000   1.0000   1.0000
     1.0000   1.0000   1.0000   1.0000   1.0000   1.0000   1.0000   1.0000
     1.0000   1.0000   1.0000   1.0000   1.0000   1.0000   1.0000   1.0000
     1.0000   1.0000   1.0000   1.0000   1.0000   1.0000  -0.0000  -0.0000
    -0.0000  -0.0000  -0.0000  -0.0000  -0.0000  -0.0000  -0.0000  -0.0000
    -0.0000  -0.0000  -0.0000  -0.0000  -0.0000  -0.0000  -0.0000  -0.0000
    -0.0000  -0.0000

          k = 0.2222 0.5132 0.1266 ( 30802 PWs)   bands (ev):

   -68.2840 -67.7447 -67.7444 -35.6951 -35.6901 -35.6900 -35.1781 -35.1774
   -35.1767 -35.1708 -35.1691 -35.1688 -14.2141 -14.2091 -14.2077 -14.2033
   -14.1848 -14.1828 -14.1710 -14.1649 -14.1634 -14.1572  -2.7884  -2.5807
     3.4400   3.9545   4.4794   5.4765   5.6721   6.4260   8.9844  10.3899
    11.0460  11.6844  12.5611  12.6320  13.5856  14.3958  14.5020  14.8504
    15.4071  16.0734  16.6650  17.3298  17.6481  18.5353  19.2718  19.6863
    20.1025  20.4846

     occupation numbers 
     1.0000   1.0000   1.0000   1.0000   1.0000   1.0000   1.0000   1.0000
     1.0000   1.0000   1.0000   1.0000   1.0000   1.0000   1.0000   1.0000
     1.0000   1.0000   1.0000   1.0000   1.0000   1.0000   1.0000   1.0000
     1.0000   1.0000   1.0000   1.0000   1.0000   1.0000  -0.0000  -0.0000
    -0.0000  -0.0000  -0.0000  -0.0000  -0.0000  -0.0000  -0.0000  -0.0000
    -0.0000  -0.0000  -0.0000  -0.0000  -0.0000  -0.0000  -0.0000  -0.0000
    -0.0000  -0.0000

          k = 0.2222 0.5132 0.2531 ( 30805 PWs)   bands (ev):

   -68.2840 -67.7447 -67.7444 -35.6951 -35.6901 -35.6900 -35.1781 -35.1774
   -35.1767 -35.1708 -35.1691 -35.1688 -14.2134 -14.2089 -14.2077 -14.2042
   -14.1852 -14.1828 -14.1703 -14.1646 -14.1631 -14.1580  -2.7339  -2.6270
     3.3472   3.6505   4.4635   5.2077   6.5226   7.0839   9.2155  10.0182
    10.4271  11.2033  11.7872  12.0936  13.2980  13.8204  15.0388  15.4271
    15.8859  16.9618  17.0755  18.4585  18.7942  19.2438  19.5448  19.7283
    19.8918  20.1007

     occupation numbers 
     1.0000   1.0000   1.0000   1.0000   1.0000   1.0000   1.0000   1.0000
     1.0000   1.0000   1.0000   1.0000   1.0000   1.0000   1.0000   1.0000
     1.0000   1.0000   1.0000   1.0000   1.0000   1.0000   1.0000   1.0000
     1.0000   1.0000   1.0000   1.0000   1.0000   1.0000  -0.0000  -0.0000
    -0.0000  -0.0000  -0.0000  -0.0000  -0.0000  -0.0000  -0.0000  -0.0000
    -0.0000  -0.0000  -0.0000  -0.0000  -0.0000  -0.0000  -0.0000  -0.0000
    -0.0000  -0.0000

          k = 0.3333 0.5774 0.0000 ( 30822 PWs)   bands (ev):

   -68.2840 -67.7445 -67.7445 -35.6951 -35.6901 -35.6901 -35.1782 -35.1771
   -35.1771 -35.1707 -35.1689 -35.1689 -14.2138 -14.2086 -14.2086 -14.2027
   -14.1833 -14.1833 -14.1721 -14.1637 -14.1637 -14.1575  -2.6523  -2.6523
     3.5762   4.3252   4.3252   5.3973   5.3973   5.5467   8.2483  12.2704
    12.2704  12.3520  12.7701  12.7701  13.9012  13.9012  13.9319  14.9672
    14.9672  15.0531  15.9854  16.6223  16.6223  16.9112  20.7216  21.0661
    21.0662  21.6600

     occupation numbers 
     1.0000   1.0000   1.0000   1.0000   1.0000   1.0000   1.0000   1.0000
     1.0000   1.0000   1.0000   1.0000   1.0000   1.0000   1.0000   1.0000
     1.0000   1.0000   1.0000   1.0000   1.0000   1.0000   1.0000   1.0000
     1.0000   1.0000   1.0000   1.0000   1.0000   1.0000  -0.0169  -0.0000
    -0.0000  -0.0000  -0.0000  -0.0000  -0.0000  -0.0000  -0.0000  -0.0000
    -0.0000  -0.0000  -0.0000  -0.0000  -0.0000  -0.0000  -0.0000  -0.0000
    -0.0000  -0.0000

          k = 0.3333 0.5774 0.1266 ( 30777 PWs)   bands (ev):

   -68.2840 -67.7445 -67.7445 -35.6951 -35.6901 -35.6901 -35.1782 -35.1771
   -35.1771 -35.1707 -35.1689 -35.1689 -14.2132 -14.2087 -14.2087 -14.2031
   -14.1834 -14.1834 -14.1716 -14.1634 -14.1634 -14.1581  -2.6482  -2.6482
     3.6607   3.9937   3.9937   5.2639   5.9827   5.9827   8.7501  11.1397
    11.1397  12.2645  12.7824  12.7824  13.2877  14.3745  14.3766  14.3766
    15.3328  15.3328  16.6116  17.4094  17.4094  18.0891  20.6829  20.7108
    20.7108  21.2760

     occupation numbers 
     1.0000   1.0000   1.0000   1.0000   1.0000   1.0000   1.0000   1.0000
     1.0000   1.0000   1.0000   1.0000   1.0000   1.0000   1.0000   1.0000
     1.0000   1.0000   1.0000   1.0000   1.0000   1.0000   1.0000   1.0000
     1.0000   1.0000   1.0000   1.0000   1.0000   1.0000  -0.0000  -0.0000
    -0.0000  -0.0000  -0.0000  -0.0000  -0.0000  -0.0000  -0.0000  -0.0000
    -0.0000  -0.0000  -0.0000  -0.0000  -0.0000  -0.0000  -0.0000  -0.0000
    -0.0000  -0.0000

          k = 0.3333 0.5774 0.2531 ( 30831 PWs)   bands (ev):

   -68.2840 -67.7445 -67.7445 -35.6951 -35.6901 -35.6901 -35.1782 -35.1771
   -35.1771 -35.1707 -35.1689 -35.1689 -14.2121 -14.2088 -14.2088 -14.2041
   -14.1836 -14.1836 -14.1708 -14.1630 -14.1630 -14.1591  -2.6415  -2.6415
     3.6805   3.6805   3.8541   4.8251   6.8958   6.8958   9.7901   9.7901
     9.8829  11.2784  13.0140  13.0365  13.0365  13.7418  13.7860  13.7860
    16.9578  16.9578  17.5482  18.7884  18.7884  19.5488  19.5488  19.7552
    20.1725  21.0842

     occupation numbers 
     1.0000   1.0000   1.0000   1.0000   1.0000   1.0000   1.0000   1.0000
     1.0000   1.0000   1.0000   1.0000   1.0000   1.0000   1.0000   1.0000
     1.0000   1.0000   1.0000   1.0000   1.0000   1.0000   1.0000   1.0000
     1.0000   1.0000   1.0000   1.0000   1.0000   1.0000  -0.0000  -0.0000
    -0.0000  -0.0000  -0.0000  -0.0000  -0.0000  -0.0000  -0.0000  -0.0000
    -0.0000  -0.0000  -0.0000  -0.0000  -0.0000  -0.0000  -0.0000  -0.0000
    -0.0000  -0.0000

          k = 0.0000 0.1283-0.1266 ( 30857 PWs)   bands (ev):

   -68.2840 -67.7451 -67.7440 -35.6951 -35.6900 -35.6899 -35.1773 -35.1773
   -35.1747 -35.1714 -35.1711 -35.1688 -14.2117 -14.2114 -14.2083 -14.2068
   -14.1882 -14.1858 -14.1733 -14.1730 -14.1592 -14.1587  -3.5925  -2.8063
     3.3636   5.9794   6.3991   6.7990   7.5143   7.7094   9.5025   9.7952
    10.6993  11.0398  11.3585  11.7235  12.3290  12.5783  13.4725  13.5077
    14.1483  14.3146  14.5927  15.2061  15.9526  17.1711  17.2227  18.4524
    19.3670  19.4733

     occupation numbers 
     1.0000   1.0000   1.0000   1.0000   1.0000   1.0000   1.0000   1.0000
     1.0000   1.0000   1.0000   1.0000   1.0000   1.0000   1.0000   1.0000
     1.0000   1.0000   1.0000   1.0000   1.0000   1.0000   1.0000   1.0000
     1.0000   1.0000   1.0000   1.0000   1.0000   1.0037  -0.0000  -0.0000
    -0.0000  -0.0000  -0.0000  -0.0000  -0.0000  -0.0000  -0.0000  -0.0000
    -0.0000  -0.0000  -0.0000  -0.0000  -0.0000  -0.0000  -0.0000  -0.0000
    -0.0000  -0.0000

          k = 0.0000 0.1283-0.2531 ( 30859 PWs)   bands (ev):

   -68.2840 -67.7451 -67.7440 -35.6951 -35.6900 -35.6899 -35.1773 -35.1773
   -35.1747 -35.1714 -35.1711 -35.1688 -14.2126 -14.2118 -14.2074 -14.2063
   -14.1885 -14.1855 -14.1732 -14.1730 -14.1594 -14.1588  -3.4355  -3.0249
     4.1056   5.1232   6.6121   6.9465   6.9923   7.4364   9.6657  10.0529
    10.4337  11.0438  11.2348  12.1046  12.1467  12.9213  13.3650  14.1705
    14.3728  14.6470  15.2170  15.6753  16.3227  16.3554  16.6746  17.6565
    17.7913  18.6479

     occupation numbers 
     1.0000   1.0000   1.0000   1.0000   1.0000   1.0000   1.0000   1.0000
     1.0000   1.0000   1.0000   1.0000   1.0000   1.0000   1.0000   1.0000
     1.0000   1.0000   1.0000   1.0000   1.0000   1.0000   1.0000   1.0000
     1.0000   1.0000   1.0000   1.0000   1.0000   1.0000  -0.0000  -0.0000
    -0.0000  -0.0000  -0.0000  -0.0000  -0.0000  -0.0000  -0.0000  -0.0000
    -0.0000  -0.0000  -0.0000  -0.0000  -0.0000  -0.0000  -0.0000  -0.0000
    -0.0000  -0.0000

          k = 0.0000 0.2566-0.1266 ( 30828 PWs)   bands (ev):

   -68.2840 -67.7450 -67.7441 -35.6951 -35.6900 -35.6900 -35.1775 -35.1775
   -35.1753 -35.1712 -35.1704 -35.1687 -14.2128 -14.2102 -14.2088 -14.2050
   -14.1873 -14.1846 -14.1721 -14.1715 -14.1604 -14.1578  -3.3994  -2.7092
     3.6044   4.8118   5.4149   6.3649   7.3730   7.5065   9.4356   9.7127
    10.6148  11.3085  11.3850  12.1446  12.8313  12.8663  13.8626  14.0849
    14.9742  15.4987  15.5481  15.8033  16.4313  16.8180  17.6905  18.3820
    19.8730  20.2145

     occupation numbers 
     1.0000   1.0000   1.0000   1.0000   1.0000   1.0000   1.0000   1.0000
     1.0000   1.0000   1.0000   1.0000   1.0000   1.0000   1.0000   1.0000
     1.0000   1.0000   1.0000   1.0000   1.0000   1.0000   1.0000   1.0000
     1.0000   1.0000   1.0000   1.0000   1.0000   1.0000  -0.0000  -0.0000
    -0.0000  -0.0000  -0.0000  -0.0000  -0.0000  -0.0000  -0.0000  -0.0000
    -0.0000  -0.0000  -0.0000  -0.0000  -0.0000  -0.0000  -0.0000  -0.0000
    -0.0000  -0.0000

          k = 0.0000 0.2566-0.2531 ( 30812 PWs)   bands (ev):

   -68.2840 -67.7450 -67.7441 -35.6951 -35.6900 -35.6900 -35.1775 -35.1775
   -35.1753 -35.1712 -35.1704 -35.1687 -14.2134 -14.2101 -14.2083 -14.2050
   -14.1877 -14.1844 -14.1717 -14.1715 -14.1605 -14.1581  -3.2563  -2.8972
     4.0440   4.4809   5.7962   6.5885   6.6295   7.1350   9.2096   9.7900
    10.9667  11.6674  11.6761  12.1617  12.8549  13.0664  13.6410  14.0350
    14.8153  14.8782  15.2608  16.0507  16.7304  17.3063  17.7200  18.7315
    18.9492  19.7165

     occupation numbers 
     1.0000   1.0000   1.0000   1.0000   1.0000   1.0000   1.0000   1.0000
     1.0000   1.0000   1.0000   1.0000   1.0000   1.0000   1.0000   1.0000
     1.0000   1.0000   1.0000   1.0000   1.0000   1.0000   1.0000   1.0000
     1.0000   1.0000   1.0000   1.0000   1.0000   1.0000  -0.0000  -0.0000
    -0.0000  -0.0000  -0.0000  -0.0000  -0.0000  -0.0000  -0.0000  -0.0000
    -0.0000  -0.0000  -0.0000  -0.0000  -0.0000  -0.0000  -0.0000  -0.0000
    -0.0000  -0.0000

          k = 0.0000 0.3849-0.1266 ( 30806 PWs)   bands (ev):

   -68.2840 -67.7449 -67.7442 -35.6951 -35.6901 -35.6900 -35.1777 -35.1777
   -35.1759 -35.1710 -35.1697 -35.1687 -14.2146 -14.2090 -14.2088 -14.2033
   -14.1868 -14.1831 -14.1700 -14.1699 -14.1621 -14.1567  -3.1317  -2.6136
     3.6272   4.0941   4.7580   6.0114   7.0052   7.2395   8.7903   9.3126
    10.3822  11.3128  11.6432  12.9293  13.6968  13.8654  14.4923  15.0961
    15.2898  15.7946  16.2957  17.0506  17.5113  17.5533  18.1795  18.7771
    19.9713  20.0276

     occupation numbers 
     1.0000   1.0000   1.0000   1.0000   1.0000   1.0000   1.0000   1.0000
     1.0000   1.0000   1.0000   1.0000   1.0000   1.0000   1.0000   1.0000
     1.0000   1.0000   1.0000   1.0000   1.0000   1.0000   1.0000   1.0000
     1.0000   1.0000   1.0000   1.0000   1.0000   1.0000  -0.0000  -0.0000
    -0.0000  -0.0000  -0.0000  -0.0000  -0.0000  -0.0000  -0.0000  -0.0000
    -0.0000  -0.0000  -0.0000  -0.0000  -0.0000  -0.0000  -0.0000  -0.0000
    -0.0000  -0.0000

          k = 0.0000 0.3849-0.2531 ( 30768 PWs)   bands (ev):

   -68.2840 -67.7449 -67.7442 -35.6951 -35.6901 -35.6900 -35.1777 -35.1777
   -35.1759 -35.1710 -35.1697 -35.1687 -14.2145 -14.2092 -14.2081 -14.2038
   -14.1873 -14.1829 -14.1696 -14.1695 -14.1621 -14.1571  -3.0156  -2.7494
     3.5514   3.8407   5.5917   6.2499   6.6719   6.8272   8.8550   9.2102
    10.0367  11.5035  12.0909  12.8437  13.9311  13.9975  14.1137  14.5210
    14.8878  14.8916  17.0163  17.0758  18.0368  18.6776  18.8701  19.3001
    20.0110  20.0378

     occupation numbers 
     1.0000   1.0000   1.0000   1.0000   1.0000   1.0000   1.0000   1.0000
     1.0000   1.0000   1.0000   1.0000   1.0000   1.0000   1.0000   1.0000
     1.0000   1.0000   1.0000   1.0000   1.0000   1.0000   1.0000   1.0000
     1.0000   1.0000   1.0000   1.0000   1.0000   1.0000  -0.0000  -0.0000
    -0.0000  -0.0000  -0.0000  -0.0000  -0.0000  -0.0000  -0.0000  -0.0000
    -0.0000  -0.0000  -0.0000  -0.0000  -0.0000  -0.0000  -0.0000  -0.0000
    -0.0000  -0.0000

          k = 0.0000 0.5132-0.1266 ( 30797 PWs)   bands (ev):

   -68.2840 -67.7447 -67.7443 -35.6951 -35.6901 -35.6900 -35.1779 -35.1778
   -35.1763 -35.1709 -35.1692 -35.1688 -14.2160 -14.2089 -14.2079 -14.2023
   -14.1866 -14.1821 -14.1688 -14.1677 -14.1639 -14.1558  -2.8963  -2.5880
     3.1706   3.8746   4.9295   5.8228   6.4655   7.0689   8.3093   9.1402
    10.6153  11.2537  11.7694  12.2089  15.2044  15.2855  15.4767  15.5393
    16.0182  16.2368  16.4870  16.5604  17.9733  18.4246  18.8478  18.8835
    19.2544  19.6535

     occupation numbers 
     1.0000   1.0000   1.0000   1.0000   1.0000   1.0000   1.0000   1.0000
     1.0000   1.0000   1.0000   1.0000   1.0000   1.0000   1.0000   1.0000
     1.0000   1.0000   1.0000   1.0000   1.0000   1.0000   1.0000   1.0000
     1.0000   1.0000   1.0000   1.0000   1.0000   1.0000  -0.0042  -0.0000
    -0.0000  -0.0000  -0.0000  -0.0000  -0.0000  -0.0000  -0.0000  -0.0000
    -0.0000  -0.0000  -0.0000  -0.0000  -0.0000  -0.0000  -0.0000  -0.0000
    -0.0000  -0.0000

          k = 0.0000 0.5132-0.2531 ( 30780 PWs)   bands (ev):

   -68.2840 -67.7447 -67.7443 -35.6951 -35.6901 -35.6900 -35.1779 -35.1778
   -35.1763 -35.1709 -35.1692 -35.1688 -14.2155 -14.2096 -14.2068 -14.2033
   -14.1872 -14.1818 -14.1684 -14.1670 -14.1640 -14.1564  -2.8173  -2.6649
     3.0606   3.4882   5.7899   6.0680   6.6444   6.7044   8.4258   9.0448
     9.7329  10.7645  12.1899  12.8894  13.9560  14.4722  15.5843  15.7584
    15.9826  16.0468  17.4688  17.6560  18.3204  18.5723  18.6456  18.9020
    19.5293  20.2151

     occupation numbers 
     1.0000   1.0000   1.0000   1.0000   1.0000   1.0000   1.0000   1.0000
     1.0000   1.0000   1.0000   1.0000   1.0000   1.0000   1.0000   1.0000
     1.0000   1.0000   1.0000   1.0000   1.0000   1.0000   1.0000   1.0000
     1.0000   1.0000   1.0000   1.0000   1.0000   1.0000  -0.0001  -0.0000
    -0.0000  -0.0000  -0.0000  -0.0000  -0.0000  -0.0000  -0.0000  -0.0000
    -0.0000  -0.0000  -0.0000  -0.0000  -0.0000  -0.0000  -0.0000  -0.0000
    -0.0000  -0.0000

          k =-0.1111 0.3208-0.1266 ( 30841 PWs)   bands (ev):

   -68.2840 -67.7449 -67.7441 -35.6951 -35.6900 -35.6900 -35.1777 -35.1776
   -35.1758 -35.1711 -35.1700 -35.1687 -14.2135 -14.2103 -14.2076 -14.2045
   -14.1866 -14.1839 -14.1712 -14.1701 -14.1613 -14.1573  -3.2291  -2.6395
     3.7384   4.3108   4.9639   5.8667   6.8372   7.3456   9.6921   9.8028
    10.3270  10.9170  11.8018  12.7071  12.8551  13.4075  14.3826  15.0956
    15.2253  15.3625  15.4915  16.5689  17.1998  18.0553  18.3050  18.5328
    19.7766  19.8903

     occupation numbers 
     1.0000   1.0000   1.0000   1.0000   1.0000   1.0000   1.0000   1.0000
     1.0000   1.0000   1.0000   1.0000   1.0000   1.0000   1.0000   1.0000
     1.0000   1.0000   1.0000   1.0000   1.0000   1.0000   1.0000   1.0000
     1.0000   1.0000   1.0000   1.0000   1.0000   1.0000  -0.0000  -0.0000
    -0.0000  -0.0000  -0.0000  -0.0000  -0.0000  -0.0000  -0.0000  -0.0000
    -0.0000  -0.0000  -0.0000  -0.0000  -0.0000  -0.0000  -0.0000  -0.0000
    -0.0000  -0.0000

          k =-0.1111 0.3208-0.2531 ( 30813 PWs)   bands (ev):

   -68.2840 -67.7449 -67.7441 -35.6951 -35.6900 -35.6900 -35.1777 -35.1776
   -35.1758 -35.1711 -35.1700 -35.1687 -14.2137 -14.2097 -14.2075 -14.2049
   -14.1870 -14.1838 -14.1708 -14.1698 -14.1613 -14.1577  -3.1019  -2.7961
     3.8508   4.0582   5.6558   5.9536   6.4718   6.9168   9.4717  10.0020
    10.5844  11.1247  11.8872  12.2301  12.7469  13.5521  13.9097  14.5222
    15.2900  15.6913  16.1640  16.8830  17.3150  17.4376  18.4757  19.3395
    19.5092  20.2043

     occupation numbers 
     1.0000   1.0000   1.0000   1.0000   1.0000   1.0000   1.0000   1.0000
     1.0000   1.0000   1.0000   1.0000   1.0000   1.0000   1.0000   1.0000
     1.0000   1.0000   1.0000   1.0000   1.0000   1.0000   1.0000   1.0000
     1.0000   1.0000   1.0000   1.0000   1.0000   1.0000  -0.0000  -0.0000
    -0.0000  -0.0000  -0.0000  -0.0000  -0.0000  -0.0000  -0.0000  -0.0000
    -0.0000  -0.0000  -0.0000  -0.0000  -0.0000  -0.0000  -0.0000  -0.0000
    -0.0000  -0.0000

          k =-0.1111 0.4491-0.1266 ( 30791 PWs)   bands (ev):

   -68.2840 -67.7448 -67.7443 -35.6951 -35.6901 -35.6900 -35.1779 -35.1776
   -35.1763 -35.1709 -35.1694 -35.1687 -14.2148 -14.2096 -14.2077 -14.2030
   -14.1861 -14.1827 -14.1701 -14.1678 -14.1627 -14.1565  -2.9670  -2.5821
     3.4458   3.9562   4.8081   5.5203   6.4987   6.8324   9.0728   9.7323
    10.4353  10.7744  12.5966  12.7663  13.2342  14.5080  14.8262  15.4480
    15.8623  16.3824  16.4612  16.7002  18.1308  18.3313  18.6406  18.9705
    19.5790  19.6944

     occupation numbers 
     1.0000   1.0000   1.0000   1.0000   1.0000   1.0000   1.0000   1.0000
     1.0000   1.0000   1.0000   1.0000   1.0000   1.0000   1.0000   1.0000
     1.0000   1.0000   1.0000   1.0000   1.0000   1.0000   1.0000   1.0000
     1.0000   1.0000   1.0000   1.0000   1.0000   1.0000  -0.0000  -0.0000
    -0.0000  -0.0000  -0.0000  -0.0000  -0.0000  -0.0000  -0.0000  -0.0000
    -0.0000  -0.0000  -0.0000  -0.0000  -0.0000  -0.0000  -0.0000  -0.0000
    -0.0000  -0.0000

          k =-0.1111 0.4491-0.2531 ( 30787 PWs)   bands (ev):

   -68.2840 -67.7448 -67.7443 -35.6951 -35.6901 -35.6900 -35.1779 -35.1776
   -35.1763 -35.1709 -35.1694 -35.1687 -14.2145 -14.2095 -14.2072 -14.2038
   -14.1867 -14.1825 -14.1696 -14.1674 -14.1627 -14.1571  -2.8747  -2.6792
     3.3320   3.6361   5.3095   5.9505   6.2397   7.0113   9.1900   9.3321
    10.2011  11.2154  11.2960  12.9948  13.6454  13.8946  14.2413  15.6179
    16.1727  16.3144  17.4409  17.7090  18.0599  18.3035  18.6749  19.2122
    19.7940  20.1182

     occupation numbers 
     1.0000   1.0000   1.0000   1.0000   1.0000   1.0000   1.0000   1.0000
     1.0000   1.0000   1.0000   1.0000   1.0000   1.0000   1.0000   1.0000
     1.0000   1.0000   1.0000   1.0000   1.0000   1.0000   1.0000   1.0000
     1.0000   1.0000   1.0000   1.0000   1.0000   1.0000  -0.0000  -0.0000
    -0.0000  -0.0000  -0.0000  -0.0000  -0.0000  -0.0000  -0.0000  -0.0000
    -0.0000  -0.0000  -0.0000  -0.0000  -0.0000  -0.0000  -0.0000  -0.0000
    -0.0000  -0.0000

          k =-0.2222 0.5132-0.1266 ( 30802 PWs)   bands (ev):

   -68.2840 -67.7447 -67.7444 -35.6951 -35.6901 -35.6900 -35.1781 -35.1774
   -35.1767 -35.1708 -35.1691 -35.1688 -14.2139 -14.2094 -14.2077 -14.2032
   -14.1848 -14.1827 -14.1710 -14.1652 -14.1629 -14.1573  -2.7871  -2.5823
     3.4779   3.9077   4.4717   5.4793   5.6795   6.4345   9.0082  10.5283
    10.8801  11.4564  12.6433  12.8408  13.7485  14.1720  14.3160  14.9303
    15.8708  16.0308  16.3228  16.9390  18.2363  18.6277  19.2407  19.6393
    19.7481  20.4661

     occupation numbers 
     1.0000   1.0000   1.0000   1.0000   1.0000   1.0000   1.0000   1.0000
     1.0000   1.0000   1.0000   1.0000   1.0000   1.0000   1.0000   1.0000
     1.0000   1.0000   1.0000   1.0000   1.0000   1.0000   1.0000   1.0000
     1.0000   1.0000   1.0000   1.0000   1.0000   1.0000  -0.0000  -0.0000
    -0.0000  -0.0000  -0.0000  -0.0000  -0.0000  -0.0000  -0.0000  -0.0000
    -0.0000  -0.0000  -0.0000  -0.0000  -0.0000  -0.0000  -0.0000  -0.0000
    -0.0000  -0.0000

          k =-0.2222 0.5132-0.2531 ( 30805 PWs)   bands (ev):

   -68.2840 -67.7447 -67.7444 -35.6951 -35.6901 -35.6900 -35.1781 -35.1774
   -35.1767 -35.1708 -35.1691 -35.1688 -14.2132 -14.2093 -14.2076 -14.2041
   -14.1852 -14.1827 -14.1703 -14.1649 -14.1628 -14.1581  -2.7322  -2.6289
     3.3830   3.6081   4.4675   5.2066   6.5172   7.0873   9.3961   9.8048
    10.4319  11.1270  11.7241  12.3579  13.2901  13.7214  15.0067  15.5870
    15.6720  16.8068  17.9279  18.1797  18.4505  18.9914  19.2331  19.7196
    20.2203  20.5462

     occupation numbers 
     1.0000   1.0000   1.0000   1.0000   1.0000   1.0000   1.0000   1.0000
     1.0000   1.0000   1.0000   1.0000   1.0000   1.0000   1.0000   1.0000
     1.0000   1.0000   1.0000   1.0000   1.0000   1.0000   1.0000   1.0000
     1.0000   1.0000   1.0000   1.0000   1.0000   1.0000  -0.0000  -0.0000
    -0.0000  -0.0000  -0.0000  -0.0000  -0.0000  -0.0000  -0.0000  -0.0000
    -0.0000  -0.0000  -0.0000  -0.0000  -0.0000  -0.0000  -0.0000  -0.0000
    -0.0000  -0.0000

     the Fermi energy is     8.0118 ev

!    total energy              =    -683.46011320 Ry
     estimated scf accuracy    <          5.4E-09 Ry
     smearing contrib. (-TS)   =      -0.00001916 Ry
     internal energy E=F+TS    =    -683.46009404 Ry

     The total energy is F=E-TS. E is the sum of the following terms:
     one-electron contribution =    -389.48585452 Ry
     hartree contribution      =     203.38388828 Ry
     xc contribution           =    -131.85209423 Ry
     ewald contribution        =    -365.50603356 Ry

     convergence has been achieved in   9 iterations

     Forces acting on atoms (cartesian axes, Ry/au):

     atom    1 type  1   force =     0.00000000    0.00000000   -0.00000993
     atom    2 type  1   force =     0.00000000    0.00000000    0.00000993
     atom    3 type  1   force =    -0.00000000    0.00000000    0.00000000
     atom    4 type  2   force =     0.00000000    0.00000000    0.00000641
     atom    5 type  2   force =     0.00000000    0.00000000   -0.00000641
     The non-local contrib.  to forces
     atom    1 type  1   force =     0.00000000    0.00000000    0.03065750
     atom    2 type  1   force =    -0.00000000   -0.00000000   -0.03065750
     atom    3 type  1   force =     0.00000000    0.00000000    0.00000000
     atom    4 type  2   force =     0.00000000    0.00000000    0.17411491
     atom    5 type  2   force =     0.00000000    0.00000000   -0.17411491
     The ionic contribution  to forces
     atom    1 type  1   force =     0.00000037   -0.00000021   -0.62208270
     atom    2 type  1   force =    -0.00000037    0.00000021    0.62208270
     atom    3 type  1   force =     0.00000000    0.00000000    0.00000000
     atom    4 type  2   force =     0.00000039   -0.00000023   -1.31652094
     atom    5 type  2   force =    -0.00000040    0.00000023    1.31652094
     The local contribution  to forces
     atom    1 type  1   force =     0.00000773   -0.00000458    0.59134259
     atom    2 type  1   force =    -0.00000800    0.00000451   -0.59134269
     atom    3 type  1   force =    -0.00000000    0.00000000    0.00000000
     atom    4 type  2   force =     0.00000271   -0.00000161    1.14785482
     atom    5 type  2   force =    -0.00000280    0.00000158   -1.14785485
     The core correction contribution to forces
     atom    1 type  1   force =     0.00000000    0.00000000    0.00000000
     atom    2 type  1   force =     0.00000000    0.00000000    0.00000000
     atom    3 type  1   force =     0.00000000    0.00000000    0.00000000
     atom    4 type  2   force =     0.00000014   -0.00000008   -0.00536993
     atom    5 type  2   force =    -0.00000015    0.00000008    0.00536993
     The Hubbard contrib.    to forces
     atom    1 type  1   force =     0.00000000    0.00000000    0.00000000
     atom    2 type  1   force =     0.00000000    0.00000000    0.00000000
     atom    3 type  1   force =     0.00000000    0.00000000    0.00000000
     atom    4 type  2   force =     0.00000000    0.00000000    0.00000000
     atom    5 type  2   force =     0.00000000    0.00000000    0.00000000
     The SCF correction term to forces
     atom    1 type  1   force =    -0.00000000    0.00000000    0.00007264
     atom    2 type  1   force =     0.00000000   -0.00000000   -0.00007264
     atom    3 type  1   force =    -0.00000000   -0.00000000   -0.00000000
     atom    4 type  2   force =    -0.00000000    0.00000000   -0.00007246
     atom    5 type  2   force =     0.00000000   -0.00000000    0.00007246

     Total force =     0.000017     Total SCF correction =     0.000145
     SCF correction compared to forces is large: reduce conv_thr to get better values


     Computing stress (Cartesian axis) and pressure

          total   stress  (Ry/bohr**3)                   (kbar)     P=        0.04
   0.00000024   0.00000000   0.00000000            0.04        0.00        0.00
   0.00000000   0.00000024   0.00000000            0.00        0.04        0.00
  -0.00000000  -0.00000000   0.00000031           -0.00       -0.00        0.05

     kinetic stress (kbar)  38987.44      0.00      0.00
                                0.00  38987.44     -0.00
                                0.00     -0.00  39002.25

     local   stress (kbar)  -5644.49     -0.00      0.00
                               -0.00  -5644.49     -0.00
                                0.00     -0.00  -6590.85

     nonloc. stress (kbar) -19072.29     -0.00      0.00
                               -0.00 -19072.29      0.00
                                0.00      0.00 -19085.26

     hartree stress (kbar)  10902.81     -0.00     -0.00
                               -0.00  10902.81     -0.00
                               -0.00     -0.00  11381.58

     exc-cor stress (kbar)   3414.53      0.00      0.00
                                0.00   3414.53      0.00
                                0.00      0.00   3414.53

     corecor stress (kbar)  -8552.08      0.00     -0.00
                                0.00  -8552.08      0.00
                               -0.00      0.00  -8552.45

     ewald   stress (kbar) -20035.89      0.00     -0.00
                                0.00 -20035.89      0.00
                               -0.00      0.00 -19569.75

     hubbard stress (kbar)      0.00      0.00      0.00
                                0.00      0.00      0.00
                                0.00      0.00      0.00

     DFT-D   stress (kbar)      0.00      0.00      0.00
                                0.00      0.00      0.00
                                0.00      0.00      0.00

     XDM     stress (kbar)      0.00      0.00      0.00
                                0.00      0.00      0.00
                                0.00      0.00      0.00

     dft-nl  stress (kbar)      0.00      0.00      0.00
                                0.00      0.00      0.00
                                0.00      0.00      0.00

     TS-vdW  stress (kbar)      0.00      0.00      0.00
                                0.00      0.00      0.00
                                0.00      0.00      0.00

     MDB     stress (kbar)      0.00      0.00      0.00
                                0.00      0.00      0.00
                                0.00      0.00      0.00

     3D-RISM stress (kbar)      0.00      0.00      0.00
                                0.00      0.00      0.00
                                0.00      0.00      0.00


     Writing all to output data dir ./tmp/mg3bi2.save/ :
     XML data file, charge density, pseudopotentials, collected wavefunctions
 
     init_run     :      1.84s CPU      7.55s WALL (       1 calls)
     electrons    :     15.55s CPU     22.33s WALL (       1 calls)
     forces       :      0.05s CPU      0.05s WALL (       1 calls)
     stress       :      0.15s CPU      0.16s WALL (       1 calls)

     Called by init_run:
     wfcinit      :      1.30s CPU      6.92s WALL (       1 calls)
     wfcinit:atom :      0.00s CPU      0.00s WALL (      13 calls)
     wfcinit:wfcr :      1.29s CPU      6.91s WALL (      13 calls)
     potinit      :      0.19s CPU      0.23s WALL (       1 calls)
     hinit0       :      0.09s CPU      0.13s WALL (       1 calls)

     Called by electrons:
     c_bands      :     13.74s CPU     19.52s WALL (      10 calls)
     sum_band     :      1.32s CPU      1.42s WALL (      10 calls)
     v_of_rho     :      0.08s CPU      0.13s WALL (      10 calls)
     v_h          :      0.01s CPU      0.05s WALL (      10 calls)
     v_xc         :      0.07s CPU      0.08s WALL (      12 calls)
     mix_rho      :      0.11s CPU      0.12s WALL (      10 calls)

     Called by c_bands:
     init_us_2    :      0.10s CPU      0.10s WALL (     299 calls)
     cegterg      :      9.28s CPU     11.72s WALL (     130 calls)

     Called by sum_band:
     sum_band:wei :      0.02s CPU      0.02s WALL (      10 calls)
     sum_band:loo :      0.99s CPU      1.01s WALL (      10 calls)
     sum_band:buf :      0.02s CPU      0.02s WALL (     130 calls)
     sum_band:ini :      0.04s CPU      0.04s WALL (     130 calls)

     Called by *egterg:
     cdiaghg      :      1.26s CPU      8.10s WALL (     525 calls)
     cegterg:over :      0.48s CPU      0.50s WALL (     408 calls)
     cegterg:upda :      0.13s CPU      0.13s WALL (     408 calls)
     cegterg:last :      0.18s CPU      0.19s WALL (     253 calls)
     h_psi        :      7.09s CPU      8.28s WALL (     551 calls)
     g_psi        :      0.03s CPU      0.03s WALL (     408 calls)

     Called by h_psi:
     h_psi:calbec :      0.34s CPU      0.36s WALL (     551 calls)
     vloc_psi     :      6.55s CPU      7.71s WALL (     551 calls)
                                        0.00s GPU  (     551 calls)
     add_vuspsi   :      0.14s CPU      0.15s WALL (     551 calls)

     General routines
     calbec       :      0.44s CPU      0.47s WALL (     772 calls)
     fft          :      0.17s CPU      0.29s WALL (      38 calls)
     ffts         :      0.01s CPU      0.02s WALL (      10 calls)
     fftw         :      7.00s CPU      8.17s WALL (   37610 calls)
 
     Parallel routines
 
     PWSCF        :     19.24s CPU     37.45s WALL

 
   This run was terminated on:  13:52:30   7Sep2026            

=------------------------------------------------------------------------------=
   JOB DONE.
=------------------------------------------------------------------------------=
