LAMMPS (24 Mar 2022)
# Compute elastic constant tensor for a crystal at finite temperature
#
# WARNING: This script attempts to measure small differences in
# statistical averages generated by finite temperature MD simulations.
# This creates many more opportunities for errors to occur, compared
# to the zero temperature version provided in examples/ELASTIC.
# Hence, it is always a good idea to start with the zero temperature
# calculation, before attempting to use this script.
#
# Written by Aidan Thompson (Sandia, athomps@sandia.gov)
#
#  This script uses the following three include files.
#
#   init.mod      (must be modified for different crystal structures)
# 	       	  Define units, MD parameters, deformation parameters,
#		  and initial configuration of the atoms and simulation cell.
#
#
#   potential.mod    (must be modified for different pair styles)
# 		     Define pair style and other attributes
#		     not stored in restart file
#
#
#   displace.mod    (displace.mod should not need to be modified)
# 		    Perform positive and negative box displacements
# 		    in direction ${dir} and size ${up}.
# 		    It uses the resultant changes
#		    in stress to compute one
# 		    row of the elastic stiffness tensor
#
#		    Inputs variables:
#		    	   dir = the Voigt deformation component
#		    		    (1,2,3,4,5,6)
#		    Global constants:
#       	    	   up = the deformation magnitude (strain units)
#       		   cfac = conversion from LAMMPS pressure units to
#               	   output units for elastic constants
#
#
#  To run this on a different system, it should only be necessary to
#  modify the files init.mod and potential.mod. In order to calculate
#  the elastic constants correctly, care must be taken to specify
#  the correct units in init.mod (units, cfac and cunits). It is also
#  important to verify that the MD sampling of stress components
#  is generating accurate statistical averages.
#  One indication of this is that the elastic constants are insensitive
#  to the choice of the variable ${up} in init.mod. Another is to
#  check for finite size effects.
#

include init.mod
# NOTE: This script can be modified for different atomic structures,
# units, etc. See in.elastic for more info.
#

# Define the finite deformation size. Try several values of this
# variable to verify that results do not depend on it.
variable up equal 2.0e-2

# metal units, elastic constants in GPa
units		metal
variable cfac equal 1.0e-4
variable cunits string GPa

# Define MD parameters
variable nevery equal 10                  # sampling interval
variable nrepeat equal 10                 # number of samples
variable nfreq equal ${nevery}*${nrepeat} # length of one average
variable nfreq equal 10*${nrepeat} 
variable nfreq equal 10*10 
variable nthermo equal ${nfreq}           # interval for thermo output
variable nthermo equal 100           
variable nequil equal 10*${nthermo}       # length of equilibration run
variable nequil equal 10*100       
variable nrun equal 3*${nthermo}          # length of equilibrated run
variable nrun equal 3*100          


variable temp equal 600.0                # temperature of initial sample


variable timestep equal 0.001             # timestep
variable adiabatic equal 2                # adiabatic (1) or isothermal (2)
variable tdamp equal 0.01                 # time constant for thermostat
variable seed equal 123457                # seed for thermostat

# generate the box and atom positions using a diamond lattice
boundary	p p p

lattice custom 1 	       a1 4.604277901 0.0 0.0 	       a2 -2.30213895 3.987421628 -0.0                a3 0.0 0.0 7.276386111                basis 0.3333333299 0.6666666700 0.6284199547                basis 0.6666666700 0.3333333300 0.3715800453                basis 0.0000000000 0.0000000000 0.0000000000                basis 0.3333333299 0.6666666700 0.2196782529                basis 0.6666666700 0.3333333300 0.7803217471
Lattice spacing in x,y,z = 6.9064169 3.9874216 7.2763861


# ---------- triclinic region consistent with a1,a2,a3 ----------
variable ax equal 4.604277901
variable bx equal -2.30213895     # = a2.x  -> xy tilt
variable by equal 3.987421628     # = a2.y
variable cz equal 7.276386111     # = a3.z

region box prism 0 ${ax}  0 ${by}  0 ${cz}  ${bx}  0.0 0.0  units box
region box prism 0 4.604277901  0 ${by}  0 ${cz}  ${bx}  0.0 0.0  units box
region box prism 0 4.604277901  0 3.987421628  0 ${cz}  ${bx}  0.0 0.0  units box
region box prism 0 4.604277901  0 3.987421628  0 7.276386111  ${bx}  0.0 0.0  units box
region box prism 0 4.604277901  0 3.987421628  0 7.276386111  -2.30213895  0.0 0.0  units box
create_box 2 box
Created triclinic box = (0 0 0) to (4.6042779 3.9874216 7.2763861) with tilt (-2.3021389 0 0)
  4 by 3 by 4 MPI processor grid
create_atoms 1 box  basis 4 2  basis 5 2   # Bi on basis indices 4 & 5 (type 2), Mg others (type 1)
Created 5 atoms
  using lattice units in triclinic box = (0 0 0) to (4.6042779 3.9874216 7.2763861) with tilt (-2.3021389 0 0)
  create_atoms CPU = 0.002 seconds

# realistic masses (not required for minimization, but good practice)
mass 1 24.305     # Mg
mass 2 208.98040  # Bi

# --- make an n×m×p supercell (example: 2×3×1) ---
replicate 15 15 12
Replicating atoms ...
  triclinic box = (0 0 0) to (69.064169 59.811324 87.316633) with tilt (-34.532084 0 0)
  4 by 3 by 4 MPI processor grid
  13500 atoms
  replicate CPU = 0.002 seconds


velocity	all create ${temp} 87287
velocity	all create 600 87287



# Compute initial state

variable thermostat equal 1
include potential.mod
# NOTE: This script can be modified for different pair styles
# See in.elastic for more info.

# we must undefine any fix ave/* fix before using reset_timestep
if "$(is_defined(fix,avp))" then "unfix avp"
reset_timestep 0

# MTP potential
pair_style  nep
pair_coeff  * * nep_y2026_m09_d04_h13_m17_s19_generation300000.txt Mg Bi


# Setup neighbor style
neighbor 1.0 nsq
neigh_modify once no every 1 delay 0 check yes

# Setup output

fix avp all ave/time  ${nevery} ${nrepeat} ${nfreq} c_thermo_press mode vector
fix avp all ave/time  10 ${nrepeat} ${nfreq} c_thermo_press mode vector
fix avp all ave/time  10 10 ${nfreq} c_thermo_press mode vector
fix avp all ave/time  10 10 100 c_thermo_press mode vector
thermo		${nthermo}
thermo		100
thermo_style custom step temp pe press f_avp[1] f_avp[2] f_avp[3] f_avp[4] f_avp[5] f_avp[6]
thermo_modify norm no

# Setup MD

timestep ${timestep}
timestep 0.001
fix 4 all nve
if "${thermostat} == 1" then    "fix 5 all langevin ${temp} ${temp} ${tdamp} ${seed}"
fix 5 all langevin ${temp} ${temp} ${tdamp} ${seed}
fix 5 all langevin 600 ${temp} ${tdamp} ${seed}
fix 5 all langevin 600 600 ${tdamp} ${seed}
fix 5 all langevin 600 600 0.01 ${seed}
fix 5 all langevin 600 600 0.01 123457


run ${nequil}
run 1000
Neighbor list info ...
  update every 1 steps, delay 0 steps, check yes
  max neighbors/atom: 2000, page size: 100000
  master list distance cutoff = 7
  ghost atom cutoff = 7
  1 neighbor lists, perpetual/occasional/extra = 1 0 0
  (1) pair nep, perpetual
      attributes: full, newton on
      pair build: full/nsq
      stencil: none
      bin: none
Per MPI rank memory allocation (min/avg/max) = 3.068 | 3.068 | 3.068 Mbytes
   Step          Temp          PotEng         Press         f_avp[1]       f_avp[2]       f_avp[3]       f_avp[4]       f_avp[5]       f_avp[6]   
         0   600           -42181.628      2894.7193      0              0              0              0              0              0            
       100   589.00875     -41562.418      10787.305      8144.3358      8305.6548      7824.4743     -17.037371     -25.666045      61.80535     
       200   600.59473     -41451.521      12004.076      11843.829      11980.195      10878.317      214.15576     -25.977444     -18.622778    
       300   594.77386     -41383.308      12508.957      12625.084      12822.461      11437.227      195.10574     -128.61894      35.003026    
       400   600.85699     -41348.309      12659.277      12958.428      13101.141      11859.126     -126.39069      63.868097      1.5710997    
       500   600.49336     -41312.982      12853.525      12965.453      13399.652      11936.203     -42.577465      11.929245      157.78545    
       600   603.91927     -41283.862      13093.758      13336.061      13471.569      12184.774     -152.39685      137.38285     -24.852865    
       700   602.50294     -41269.027      12886.01       13366.2        13516.027      12055.734     -89.406292      86.428821      148.49689    
       800   603.58588     -41254.498      13031.607      13223.863      13711.077      12098.637      104.80107     -3.3866711      254.42549    
       900   603.31513     -41229.353      13228.423      13246.017      13845.936      12308.494      70.484958     -20.608667      227.75022    
      1000   595.62171     -41219.498      13237.782      13582.21       13768.384      12173.685      29.154539      71.957541      36.840309    
Loop time of 15.5505 on 48 procs for 1000 steps with 13500 atoms

Performance: 5.556 ns/day, 4.320 hours/ns, 64.306 timesteps/s
99.6% CPU use with 48 MPI tasks x no OpenMP threads

MPI task timing breakdown:
Section |  min time  |  avg time  |  max time  |%varavg| %total
---------------------------------------------------------------
Pair    | 12.714     | 13.777     | 14.901     |  17.5 | 88.59
Neigh   | 0.040103   | 0.04401    | 0.047929   |   1.3 |  0.28
Comm    | 0.31791    | 1.4311     | 2.5091     |  55.7 |  9.20
Output  | 0.00047859 | 0.00053364 | 0.0015784  |   0.0 |  0.00
Modify  | 0.042477   | 0.061517   | 0.083609   |   4.9 |  0.40
Other   |            | 0.2364     |            |       |  1.52

Nlocal:         281.25 ave         297 max         263 min
Histogram: 4 3 12 4 1 0 1 6 8 9
Nghost:        1264.73 ave        1297 max        1226 min
Histogram: 2 7 13 2 0 0 0 1 14 9
Neighs:              0 ave           0 max           0 min
Histogram: 48 0 0 0 0 0 0 0 0 0
FullNghs:      14272.3 ave       15157 max       13361 min
Histogram: 4 6 11 3 0 0 3 5 12 4

Total # of neighbors = 685072
Ave neighs/atom = 50.746074
Neighbor list builds = 22
Dangerous builds = 0

if "${adiabatic} == 1" then "variable thermostat equal 0" else "variable thermostat equal 1"
variable thermostat equal 1

print ${thermostat}
print 1
1

include potential.mod
# NOTE: This script can be modified for different pair styles
# See in.elastic for more info.

# we must undefine any fix ave/* fix before using reset_timestep
if "$(is_defined(fix,avp))" then "unfix avp"
unfix avp
reset_timestep 0

# MTP potential
pair_style  nep
pair_coeff  * * nep_y2026_m09_d04_h13_m17_s19_generation300000.txt Mg Bi


# Setup neighbor style
neighbor 1.0 nsq
neigh_modify once no every 1 delay 0 check yes

# Setup output

fix avp all ave/time  ${nevery} ${nrepeat} ${nfreq} c_thermo_press mode vector
fix avp all ave/time  10 ${nrepeat} ${nfreq} c_thermo_press mode vector
fix avp all ave/time  10 10 ${nfreq} c_thermo_press mode vector
fix avp all ave/time  10 10 100 c_thermo_press mode vector
thermo		${nthermo}
thermo		100
thermo_style custom step temp pe press f_avp[1] f_avp[2] f_avp[3] f_avp[4] f_avp[5] f_avp[6]
WARNING: New thermo_style command, previous thermo_modify settings will be lost (../output.cpp:896)
thermo_modify norm no

# Setup MD

timestep ${timestep}
timestep 0.001
fix 4 all nve
if "${thermostat} == 1" then    "fix 5 all langevin ${temp} ${temp} ${tdamp} ${seed}"
fix 5 all langevin ${temp} ${temp} ${tdamp} ${seed}
fix 5 all langevin 600 ${temp} ${tdamp} ${seed}
fix 5 all langevin 600 600 ${tdamp} ${seed}
fix 5 all langevin 600 600 0.01 ${seed}
fix 5 all langevin 600 600 0.01 123457


run ${nrun}
run 300
Per MPI rank memory allocation (min/avg/max) = 3.068 | 3.068 | 3.068 Mbytes
   Step          Temp          PotEng         Press         f_avp[1]       f_avp[2]       f_avp[3]       f_avp[4]       f_avp[5]       f_avp[6]   
         0   595.62171     -41219.498      13237.782      0              0              0              0              0              0            
       100   598.20692     -41215.521      13219.246      13808.981      13637.58       12236.384     -281.53688      224.33942     -77.919988    
       200   596.88854     -41213.899      13149.896      13524.193      13737.775      12483.944     -46.154725      117.65427      92.39018     
       300   596.7845      -41205.696      13100.989      13217.422      13826.4        12553.367      37.05253       79.941778      95.390685    
Loop time of 4.64859 on 48 procs for 300 steps with 13500 atoms

Performance: 5.576 ns/day, 4.304 hours/ns, 64.536 timesteps/s
99.5% CPU use with 48 MPI tasks x no OpenMP threads

MPI task timing breakdown:
Section |  min time  |  avg time  |  max time  |%varavg| %total
---------------------------------------------------------------
Pair    | 3.8312     | 4.1437     | 4.4398     |   9.3 | 89.14
Neigh   | 0.012815   | 0.014085   | 0.015261   |   0.7 |  0.30
Comm    | 0.14636    | 0.40191    | 0.69183    |  27.1 |  8.65
Output  | 0.00014419 | 0.00015764 | 0.0002047  |   0.0 |  0.00
Modify  | 0.0057949  | 0.016324   | 0.028998   |   7.9 |  0.35
Other   |            | 0.07238    |            |       |  1.56

Nlocal:         281.25 ave         298 max         264 min
Histogram: 4 7 11 1 1 0 0 11 10 3
Nghost:        1266.12 ave        1296 max        1236 min
Histogram: 10 9 4 1 0 0 0 2 11 11
Neighs:              0 ave           0 max           0 min
Histogram: 48 0 0 0 0 0 0 0 0 0
FullNghs:      14307.8 ave       15216 max       13381 min
Histogram: 6 7 9 1 1 0 1 8 12 3

Total # of neighbors = 686776
Ave neighs/atom = 50.872296
Neighbor list builds = 7
Dangerous builds = 0

variable pxx0 equal f_avp[1]
variable pyy0 equal f_avp[2]
variable pzz0 equal f_avp[3]
variable pxy0 equal f_avp[4]
variable pxz0 equal f_avp[5]
variable pyz0 equal f_avp[6]

variable tmp equal lx
variable lx0 equal ${tmp}
variable lx0 equal 69.064168515
variable tmp equal ly
variable ly0 equal ${tmp}
variable ly0 equal 59.81132442
variable tmp equal lz
variable lz0 equal ${tmp}
variable lz0 equal 87.316633332

# These formulas define the derivatives w.r.t. strain components
# Constants uses $, variables use v_
variable d1 equal -(v_pxx1-${pxx0})/(v_delta/v_len0)*${cfac}
variable d1 equal -(v_pxx1-13217.4222727221)/(v_delta/v_len0)*${cfac}
variable d1 equal -(v_pxx1-13217.4222727221)/(v_delta/v_len0)*0.0001
variable d2 equal -(v_pyy1-${pyy0})/(v_delta/v_len0)*${cfac}
variable d2 equal -(v_pyy1-13826.4002534137)/(v_delta/v_len0)*${cfac}
variable d2 equal -(v_pyy1-13826.4002534137)/(v_delta/v_len0)*0.0001
variable d3 equal -(v_pzz1-${pzz0})/(v_delta/v_len0)*${cfac}
variable d3 equal -(v_pzz1-12553.367050257)/(v_delta/v_len0)*${cfac}
variable d3 equal -(v_pzz1-12553.367050257)/(v_delta/v_len0)*0.0001
variable d4 equal -(v_pyz1-${pyz0})/(v_delta/v_len0)*${cfac}
variable d4 equal -(v_pyz1-95.3906850489343)/(v_delta/v_len0)*${cfac}
variable d4 equal -(v_pyz1-95.3906850489343)/(v_delta/v_len0)*0.0001
variable d5 equal -(v_pxz1-${pxz0})/(v_delta/v_len0)*${cfac}
variable d5 equal -(v_pxz1-79.941777637933)/(v_delta/v_len0)*${cfac}
variable d5 equal -(v_pxz1-79.941777637933)/(v_delta/v_len0)*0.0001
variable d6 equal -(v_pxy1-${pxy0})/(v_delta/v_len0)*${cfac}
variable d6 equal -(v_pxy1-37.052529774622)/(v_delta/v_len0)*${cfac}
variable d6 equal -(v_pxy1-37.052529774622)/(v_delta/v_len0)*0.0001

# Write restart
write_restart restart.equil
System init for write_restart ...

# uxx Perturbation

variable dir equal 1
include displace.mod
# NOTE: This script should not need to be
# modified. See in.elastic for more info.
#
# Find which reference length to use

if "${dir} == 1" then    "variable len0 equal ${lx0}"
variable len0 equal ${lx0}
variable len0 equal 69.064168515
if "${dir} == 2" then    "variable len0 equal ${ly0}"
if "${dir} == 3" then    "variable len0 equal ${lz0}"
if "${dir} == 4" then    "variable len0 equal ${lz0}"
if "${dir} == 5" then    "variable len0 equal ${lz0}"
if "${dir} == 6" then    "variable len0 equal ${ly0}"

# Reset box and simulation parameters

clear
box tilt large
read_restart restart.equil
Reading restart file ...
  restart file = 24 Mar 2022, LAMMPS = 24 Mar 2022
  restoring atom style atomic from restart
  triclinic box = (0 0 0) to (69.064169 59.811324 87.316633) with tilt (-34.532084 0 0)
  4 by 3 by 4 MPI processor grid
  pair style nep stores no restart info
  13500 atoms
  read_restart CPU = 0.154 seconds
include potential.mod
# NOTE: This script can be modified for different pair styles
# See in.elastic for more info.

# we must undefine any fix ave/* fix before using reset_timestep
if "$(is_defined(fix,avp))" then "unfix avp"
reset_timestep 0

# MTP potential
pair_style  nep
pair_coeff  * * nep_y2026_m09_d04_h13_m17_s19_generation300000.txt Mg Bi


# Setup neighbor style
neighbor 1.0 nsq
neigh_modify once no every 1 delay 0 check yes

# Setup output

fix avp all ave/time  ${nevery} ${nrepeat} ${nfreq} c_thermo_press mode vector
fix avp all ave/time  10 ${nrepeat} ${nfreq} c_thermo_press mode vector
fix avp all ave/time  10 10 ${nfreq} c_thermo_press mode vector
fix avp all ave/time  10 10 100 c_thermo_press mode vector
thermo		${nthermo}
thermo		100
thermo_style custom step temp pe press f_avp[1] f_avp[2] f_avp[3] f_avp[4] f_avp[5] f_avp[6]
thermo_modify norm no

# Setup MD

timestep ${timestep}
timestep 0.001
fix 4 all nve
if "${thermostat} == 1" then    "fix 5 all langevin ${temp} ${temp} ${tdamp} ${seed}"
fix 5 all langevin ${temp} ${temp} ${tdamp} ${seed}
fix 5 all langevin 600 ${temp} ${tdamp} ${seed}
fix 5 all langevin 600 600 ${tdamp} ${seed}
fix 5 all langevin 600 600 0.01 ${seed}
fix 5 all langevin 600 600 0.01 123457



# Negative deformation

variable delta equal -${up}*${len0}
variable delta equal -0.02*${len0}
variable delta equal -0.02*69.064168515
variable deltaxy equal -${up}*xy
variable deltaxy equal -0.02*xy
variable deltaxz equal -${up}*xz
variable deltaxz equal -0.02*xz
variable deltayz equal -${up}*yz
variable deltayz equal -0.02*yz
if "${dir} == 1" then    "change_box all x delta 0 ${delta} xy delta ${deltaxy} xz delta ${deltaxz} remap units box"
change_box all x delta 0 ${delta} xy delta ${deltaxy} xz delta ${deltaxz} remap units box
change_box all x delta 0 -1.3812833703 xy delta ${deltaxy} xz delta ${deltaxz} remap units box
change_box all x delta 0 -1.3812833703 xy delta 0.690641685 xz delta ${deltaxz} remap units box
change_box all x delta 0 -1.3812833703 xy delta 0.690641685 xz delta -0 remap units box
Changing box ...
WARNING: Triclinic box skew is large (../domain.cpp:228)
  triclinic box = (0 0 0) to (67.682885 59.811324 87.316633) with tilt (-34.532084 0 0)
  triclinic box = (0 0 0) to (67.682885 59.811324 87.316633) with tilt (-33.841443 0 0)
  triclinic box = (0 0 0) to (67.682885 59.811324 87.316633) with tilt (-33.841443 0 0)
if "${dir} == 2" then    "change_box all y delta 0 ${delta} yz delta ${deltayz} remap units box"
if "${dir} == 3" then    "change_box all z delta 0 ${delta} remap units box"
if "${dir} == 4" then    "change_box all yz delta ${delta} remap units box"
if "${dir} == 5" then    "change_box all xz delta ${delta} remap units box"
if "${dir} == 6" then    "change_box all xy delta ${delta} remap units box"

# Run MD

run ${nequil}
run 1000
Neighbor list info ...
  update every 1 steps, delay 0 steps, check yes
  max neighbors/atom: 2000, page size: 100000
  master list distance cutoff = 7
  ghost atom cutoff = 7
  1 neighbor lists, perpetual/occasional/extra = 1 0 0
  (1) pair nep, perpetual
      attributes: full, newton on
      pair build: full/nsq
      stencil: none
      bin: none
Per MPI rank memory allocation (min/avg/max) = 3.065 | 3.066 | 3.067 Mbytes
   Step          Temp          PotEng         Press         f_avp[1]       f_avp[2]       f_avp[3]       f_avp[4]       f_avp[5]       f_avp[6]   
         0   596.7845      -41122.115      23070.329      0              0              0              0              0              0            
       100   596.93684     -41145.555      22470.722      28832.118      21013.259      18051.728     -48.593854      156.00115     -396.63065    
       200   606.76801     -41145.665      22412.132      27271.759      21853.975      18146.35       170.54443     -30.35025       161.67858    
       300   603.97096     -41142.289      22323.765      27135.56       21944.142      17967.088     -9.0087237      50.557022      281.66733    
       400   600.69643     -41128.144      22381.52       27006.112      21770.685      18155.503      366.47457     -77.032737      341.49112    
       500   593.69623     -41133.996      22238.889      27103.173      21650.081      18136.701      12.084548      183.97339      311.92194    
       600   601.86358     -41133.015      22275.206      27075.627      21356.119      18297.921     -191.89149      216.91609      233.63482    
       700   599.50117     -41131.521      22361.467      26799.116      21756.198      18184.949     -139.10386      147.28267      456.22008    
       800   600.18051     -41129.241      22346.272      26950.029      22045.495      18028.469     -63.952187      70.515209      442.14075    
       900   601.37936     -41132.129      22261.319      26703.605      21989.145      18204.297      82.815138      22.249173      589.30628    
      1000   596.96249     -41122.684      22336.174      26874.367      21970.809      18102.046     -181.14146      195.62781      347.9969     
Loop time of 15.6763 on 48 procs for 1000 steps with 13500 atoms

Performance: 5.511 ns/day, 4.355 hours/ns, 63.790 timesteps/s
99.6% CPU use with 48 MPI tasks x no OpenMP threads

MPI task timing breakdown:
Section |  min time  |  avg time  |  max time  |%varavg| %total
---------------------------------------------------------------
Pair    | 13.041     | 14.009     | 15.112     |  17.0 | 89.37
Neigh   | 0.044519   | 0.048591   | 0.052825   |   1.2 |  0.31
Comm    | 0.31179    | 1.3807     | 2.4219     |  54.3 |  8.81
Output  | 0.0004188  | 0.00044246 | 0.00060678 |   0.0 |  0.00
Modify  | 0.018562   | 0.025786   | 0.037355   |   4.0 |  0.16
Other   |            | 0.2114     |            |       |  1.35

Nlocal:         281.25 ave         298 max         261 min
Histogram: 2 3 11 5 3 0 0 8 12 4
Nghost:        1271.19 ave        1298 max        1243 min
Histogram: 5 7 4 7 1 0 1 6 14 3
Neighs:              0 ave           0 max           0 min
Histogram: 48 0 0 0 0 0 0 0 0 0
FullNghs:      14738.3 ave       15654 max       13564 min
Histogram: 1 2 10 7 4 0 1 7 13 3

Total # of neighbors = 707440
Ave neighs/atom = 52.402963
Neighbor list builds = 24
Dangerous builds = 0
include potential.mod
# NOTE: This script can be modified for different pair styles
# See in.elastic for more info.

# we must undefine any fix ave/* fix before using reset_timestep
if "$(is_defined(fix,avp))" then "unfix avp"
unfix avp
reset_timestep 0

# MTP potential
pair_style  nep
pair_coeff  * * nep_y2026_m09_d04_h13_m17_s19_generation300000.txt Mg Bi


# Setup neighbor style
neighbor 1.0 nsq
neigh_modify once no every 1 delay 0 check yes

# Setup output

fix avp all ave/time  ${nevery} ${nrepeat} ${nfreq} c_thermo_press mode vector
fix avp all ave/time  10 ${nrepeat} ${nfreq} c_thermo_press mode vector
fix avp all ave/time  10 10 ${nfreq} c_thermo_press mode vector
fix avp all ave/time  10 10 100 c_thermo_press mode vector
thermo		${nthermo}
thermo		100
thermo_style custom step temp pe press f_avp[1] f_avp[2] f_avp[3] f_avp[4] f_avp[5] f_avp[6]
WARNING: New thermo_style command, previous thermo_modify settings will be lost (../output.cpp:896)
thermo_modify norm no

# Setup MD

timestep ${timestep}
timestep 0.001
fix 4 all nve
if "${thermostat} == 1" then    "fix 5 all langevin ${temp} ${temp} ${tdamp} ${seed}"
fix 5 all langevin ${temp} ${temp} ${tdamp} ${seed}
fix 5 all langevin 600 ${temp} ${tdamp} ${seed}
fix 5 all langevin 600 600 ${tdamp} ${seed}
fix 5 all langevin 600 600 0.01 ${seed}
fix 5 all langevin 600 600 0.01 123457


run ${nrun}
run 300
Per MPI rank memory allocation (min/avg/max) = 3.066 | 3.068 | 3.074 Mbytes
   Step          Temp          PotEng         Press         f_avp[1]       f_avp[2]       f_avp[3]       f_avp[4]       f_avp[5]       f_avp[6]   
         0   596.96249     -41122.684      22336.174      0              0              0              0              0              0            
       100   599.31191     -41127.827      22177.528      26691.738      22134.792      18258.797      89.618375     -6.9586952      507.8755     
       200   601.25863     -41121.361      22307.228      26686.475      22011.484      18075.425     -47.977847      55.244198      493.89051    
       300   601.77443     -41101.971      22373.212      26761.847      22032.785      18235.235     -35.690319      172.42893      466.91744    
Loop time of 4.81546 on 48 procs for 300 steps with 13500 atoms

Performance: 5.383 ns/day, 4.459 hours/ns, 62.299 timesteps/s
99.5% CPU use with 48 MPI tasks x no OpenMP threads

MPI task timing breakdown:
Section |  min time  |  avg time  |  max time  |%varavg| %total
---------------------------------------------------------------
Pair    | 3.8782     | 4.2112     | 4.5413     |   9.3 | 87.45
Neigh   | 0.013037   | 0.014203   | 0.015313   |   0.7 |  0.29
Comm    | 0.11087    | 0.44255    | 0.80662    |  29.3 |  9.19
Output  | 0.00013164 | 0.0001716  | 0.00021372 |   0.0 |  0.00
Modify  | 0.033435   | 0.046611   | 0.065635   |   6.2 |  0.97
Other   |            | 0.1007     |            |       |  2.09

Nlocal:         281.25 ave         297 max         264 min
Histogram: 3 9 6 4 1 1 2 7 11 4
Nghost:        1269.79 ave        1293 max        1239 min
Histogram: 3 3 9 7 1 1 0 5 9 10
Neighs:              0 ave           0 max           0 min
Histogram: 48 0 0 0 0 0 0 0 0 0
FullNghs:      14743.5 ave       15621 max       13856 min
Histogram: 6 9 2 5 1 2 3 9 5 6

Total # of neighbors = 707688
Ave neighs/atom = 52.421333
Neighbor list builds = 7
Dangerous builds = 0

# Obtain new stress tensor

variable pxx1 equal f_avp[1]
variable pyy1 equal f_avp[2]
variable pzz1 equal f_avp[3]
variable pxy1 equal f_avp[4]
variable pxz1 equal f_avp[5]
variable pyz1 equal f_avp[6]

# Compute elastic constant from pressure tensor

variable C1neg equal ${d1}
variable C1neg equal 67.722122433125
variable C2neg equal ${d2}
variable C2neg equal 41.031923112855
variable C3neg equal ${d3}
variable C3neg equal 28.409338570702
variable C4neg equal ${d4}
variable C4neg equal 1.85763378001932
variable C5neg equal ${d5}
variable C5neg equal 0.46243573683796
variable C6neg equal ${d6}
variable C6neg equal -0.363714244339801

# Reset box and simulation parameters

clear
box tilt large
read_restart restart.equil
Reading restart file ...
  restart file = 24 Mar 2022, LAMMPS = 24 Mar 2022
  restoring atom style atomic from restart
  triclinic box = (0 0 0) to (69.064169 59.811324 87.316633) with tilt (-34.532084 0 0)
  4 by 3 by 4 MPI processor grid
  pair style nep stores no restart info
  13500 atoms
  read_restart CPU = 0.004 seconds
include potential.mod
# NOTE: This script can be modified for different pair styles
# See in.elastic for more info.

# we must undefine any fix ave/* fix before using reset_timestep
if "$(is_defined(fix,avp))" then "unfix avp"
reset_timestep 0

# MTP potential
pair_style  nep
pair_coeff  * * nep_y2026_m09_d04_h13_m17_s19_generation300000.txt Mg Bi


# Setup neighbor style
neighbor 1.0 nsq
neigh_modify once no every 1 delay 0 check yes

# Setup output

fix avp all ave/time  ${nevery} ${nrepeat} ${nfreq} c_thermo_press mode vector
fix avp all ave/time  10 ${nrepeat} ${nfreq} c_thermo_press mode vector
fix avp all ave/time  10 10 ${nfreq} c_thermo_press mode vector
fix avp all ave/time  10 10 100 c_thermo_press mode vector
thermo		${nthermo}
thermo		100
thermo_style custom step temp pe press f_avp[1] f_avp[2] f_avp[3] f_avp[4] f_avp[5] f_avp[6]
thermo_modify norm no

# Setup MD

timestep ${timestep}
timestep 0.001
fix 4 all nve
if "${thermostat} == 1" then    "fix 5 all langevin ${temp} ${temp} ${tdamp} ${seed}"
fix 5 all langevin ${temp} ${temp} ${tdamp} ${seed}
fix 5 all langevin 600 ${temp} ${tdamp} ${seed}
fix 5 all langevin 600 600 ${tdamp} ${seed}
fix 5 all langevin 600 600 0.01 ${seed}
fix 5 all langevin 600 600 0.01 123457



# Positive deformation

variable delta equal ${up}*${len0}
variable delta equal 0.02*${len0}
variable delta equal 0.02*69.064168515
variable deltaxy equal ${up}*xy
variable deltaxy equal 0.02*xy
variable deltaxz equal ${up}*xz
variable deltaxz equal 0.02*xz
variable deltayz equal ${up}*yz
variable deltayz equal 0.02*yz
if "${dir} == 1" then    "change_box all x delta 0 ${delta} xy delta ${deltaxy} xz delta ${deltaxz} remap units box"
change_box all x delta 0 ${delta} xy delta ${deltaxy} xz delta ${deltaxz} remap units box
change_box all x delta 0 1.3812833703 xy delta ${deltaxy} xz delta ${deltaxz} remap units box
change_box all x delta 0 1.3812833703 xy delta -0.690641685 xz delta ${deltaxz} remap units box
change_box all x delta 0 1.3812833703 xy delta -0.690641685 xz delta 0 remap units box
Changing box ...
  triclinic box = (0 0 0) to (70.445452 59.811324 87.316633) with tilt (-34.532084 0 0)
  triclinic box = (0 0 0) to (70.445452 59.811324 87.316633) with tilt (-35.222726 0 0)
  triclinic box = (0 0 0) to (70.445452 59.811324 87.316633) with tilt (-35.222726 0 0)
if "${dir} == 2" then    "change_box all y delta 0 ${delta} yz delta ${deltayz} remap units box"
if "${dir} == 3" then    "change_box all z delta 0 ${delta} remap units box"
if "${dir} == 4" then    "change_box all yz delta ${delta} remap units box"
if "${dir} == 5" then    "change_box all xz delta ${delta} remap units box"
if "${dir} == 6" then    "change_box all xy delta ${delta} remap units box"

# Run MD

run ${nequil}
run 1000
Neighbor list info ...
  update every 1 steps, delay 0 steps, check yes
  max neighbors/atom: 2000, page size: 100000
  master list distance cutoff = 7
  ghost atom cutoff = 7
  1 neighbor lists, perpetual/occasional/extra = 1 0 0
  (1) pair nep, perpetual
      attributes: full, newton on
      pair build: full/nsq
      stencil: none
      bin: none
Per MPI rank memory allocation (min/avg/max) = 3.065 | 3.066 | 3.067 Mbytes
   Step          Temp          PotEng         Press         f_avp[1]       f_avp[2]       f_avp[3]       f_avp[4]       f_avp[5]       f_avp[6]   
         0   596.7845      -41216.381      4409.2103      0              0              0              0              0              0            
       100   602.37271     -41185.185      4893.0114      59.883252      7217.3039      6826.5574     -19.702884      151.15941      295.84315    
       200   602.87316     -41164.393      5234.6075      1329.8078      6734.1721      6894.0435      39.007439      128.53444     -162.87798    
       300   602.28342     -41158.741      5220.9053      2044.7563      6813.8709      6819.4417      138.86297      36.971157     -351.21385    
       400   609.28271     -41147.852      5410.3917      2164.7474      6673.0911      6908.2877      1.7662282      86.670621     -454.88887    
       500   596.83476     -41150.318      5316.5033      2290.8926      6403.1294      7134.1021     -123.60875      238.28762     -488.95601    
       600   602.37759     -41139.713      5493.8774      2665.8243      6663.1168      7072.8003     -108.60783      90.345682     -564.79316    
       700   605.11144     -41137.503      5578.6457      2823.1467      6364.9282      7301.7826     -25.558592      107.90752     -687.16394    
       800   601.42403     -41137.568      5530.3822      2614.4555      6743.8541      7222.8449     -56.256091      238.02173     -485.47996    
       900   597.96749     -41142.617      5380.3261      2327.9989      6873.1892      7290.5792     -91.076223      162.0419      -251.20243    
      1000   593.44747     -41128.052      5465.3229      2328.9191      6728.2966      7446.0021     -257.54023      218.70827     -345.01615    
Loop time of 15.3051 on 48 procs for 1000 steps with 13500 atoms

Performance: 5.645 ns/day, 4.251 hours/ns, 65.338 timesteps/s
99.6% CPU use with 48 MPI tasks x no OpenMP threads

MPI task timing breakdown:
Section |  min time  |  avg time  |  max time  |%varavg| %total
---------------------------------------------------------------
Pair    | 12.509     | 13.639     | 14.697     |  16.7 | 89.11
Neigh   | 0.041578   | 0.045957   | 0.049754   |   1.3 |  0.30
Comm    | 0.32015    | 1.376      | 2.4217     |  50.7 |  8.99
Output  | 0.00044182 | 0.00046646 | 0.00078015 |   0.0 |  0.00
Modify  | 0.019639   | 0.037824   | 0.059684   |   5.8 |  0.25
Other   |            | 0.2058     |            |       |  1.34

Nlocal:         281.25 ave         299 max         264 min
Histogram: 3 6 12 2 1 0 6 6 9 3
Nghost:        1259.06 ave        1297 max        1228 min
Histogram: 14 10 0 0 0 0 2 12 7 3
Neighs:              0 ave           0 max           0 min
Histogram: 48 0 0 0 0 0 0 0 0 0
FullNghs:      14057.8 ave       14974 max       13148 min
Histogram: 3 9 7 5 0 0 6 5 11 2

Total # of neighbors = 674776
Ave neighs/atom = 49.983407
Neighbor list builds = 23
Dangerous builds = 0
include potential.mod
# NOTE: This script can be modified for different pair styles
# See in.elastic for more info.

# we must undefine any fix ave/* fix before using reset_timestep
if "$(is_defined(fix,avp))" then "unfix avp"
unfix avp
reset_timestep 0

# MTP potential
pair_style  nep
pair_coeff  * * nep_y2026_m09_d04_h13_m17_s19_generation300000.txt Mg Bi


# Setup neighbor style
neighbor 1.0 nsq
neigh_modify once no every 1 delay 0 check yes

# Setup output

fix avp all ave/time  ${nevery} ${nrepeat} ${nfreq} c_thermo_press mode vector
fix avp all ave/time  10 ${nrepeat} ${nfreq} c_thermo_press mode vector
fix avp all ave/time  10 10 ${nfreq} c_thermo_press mode vector
fix avp all ave/time  10 10 100 c_thermo_press mode vector
thermo		${nthermo}
thermo		100
thermo_style custom step temp pe press f_avp[1] f_avp[2] f_avp[3] f_avp[4] f_avp[5] f_avp[6]
WARNING: New thermo_style command, previous thermo_modify settings will be lost (../output.cpp:896)
thermo_modify norm no

# Setup MD

timestep ${timestep}
timestep 0.001
fix 4 all nve
if "${thermostat} == 1" then    "fix 5 all langevin ${temp} ${temp} ${tdamp} ${seed}"
fix 5 all langevin ${temp} ${temp} ${tdamp} ${seed}
fix 5 all langevin 600 ${temp} ${tdamp} ${seed}
fix 5 all langevin 600 600 ${tdamp} ${seed}
fix 5 all langevin 600 600 0.01 ${seed}
fix 5 all langevin 600 600 0.01 123457


run ${nrun}
run 300
Per MPI rank memory allocation (min/avg/max) = 3.065 | 3.068 | 3.081 Mbytes
   Step          Temp          PotEng         Press         f_avp[1]       f_avp[2]       f_avp[3]       f_avp[4]       f_avp[5]       f_avp[6]   
         0   593.44747     -41128.052      5465.3229      0              0              0              0              0              0            
       100   595.71322     -41132.884      5386.4694      2115.7858      6720.5355      7266.6663     -344.25233      320.63378     -290.31705    
       200   599.70968     -41118.324      5526.8705      2348.3444      6848.3567      7206.5816     -130.93915      147.85269     -361.82718    
       300   603.84288     -41119.427      5468.7445      2473.5929      6648.6872      7484.1753      79.311883      10.413459     -460.34414    
Loop time of 4.48297 on 48 procs for 300 steps with 13500 atoms

Performance: 5.782 ns/day, 4.151 hours/ns, 66.920 timesteps/s
99.6% CPU use with 48 MPI tasks x no OpenMP threads

MPI task timing breakdown:
Section |  min time  |  avg time  |  max time  |%varavg| %total
---------------------------------------------------------------
Pair    | 3.7881     | 4.0928     | 4.3992     |   9.0 | 91.30
Neigh   | 0.010989   | 0.012027   | 0.013107   |   0.7 |  0.27
Comm    | 0.03877    | 0.34758    | 0.65271    |  30.6 |  7.75
Output  | 0.00013197 | 0.00014358 | 0.00017648 |   0.0 |  0.00
Modify  | 0.0055175  | 0.0076346  | 0.013757   |   2.4 |  0.17
Other   |            | 0.02283    |            |       |  0.51

Nlocal:         281.25 ave         297 max         264 min
Histogram: 3 5 12 4 0 0 2 5 13 4
Nghost:        1261.29 ave        1302 max        1224 min
Histogram: 3 13 8 0 0 0 2 13 7 2
Neighs:              0 ave           0 max           0 min
Histogram: 48 0 0 0 0 0 0 0 0 0
FullNghs:      14062.4 ave       14817 max       13196 min
Histogram: 6 6 9 3 0 0 1 2 12 9

Total # of neighbors = 674996
Ave neighs/atom = 49.999704
Neighbor list builds = 6
Dangerous builds = 0

# Obtain new stress tensor

variable pxx1 equal f_avp[1]
variable pyy1 equal f_avp[2]
variable pzz1 equal f_avp[3]
variable pxy1 equal f_avp[4]
variable pxz1 equal f_avp[5]
variable pyz1 equal f_avp[6]

# Compute elastic constant from pressure tensor

variable C1pos equal ${d1}
variable C1pos equal 53.7191468096802
variable C2pos equal ${d2}
variable C2pos equal 35.8885652853144
variable C3pos equal ${d3}
variable C3pos equal 25.3459585487359
variable C4pos equal ${d4}
variable C4pos equal 2.77867412686435
variable C5pos equal ${d5}
variable C5pos equal 0.34764159521148
variable C6pos equal ${d6}
variable C6pos equal -0.211296768219356

# Combine positive and negative

variable C1${dir} equal 0.5*(${C1neg}+${C1pos})
variable C11 equal 0.5*(${C1neg}+${C1pos})
variable C11 equal 0.5*(67.722122433125+${C1pos})
variable C11 equal 0.5*(67.722122433125+53.7191468096802)
variable C2${dir} equal 0.5*(${C2neg}+${C2pos})
variable C21 equal 0.5*(${C2neg}+${C2pos})
variable C21 equal 0.5*(41.031923112855+${C2pos})
variable C21 equal 0.5*(41.031923112855+35.8885652853144)
variable C3${dir} equal 0.5*(${C3neg}+${C3pos})
variable C31 equal 0.5*(${C3neg}+${C3pos})
variable C31 equal 0.5*(28.409338570702+${C3pos})
variable C31 equal 0.5*(28.409338570702+25.3459585487359)
variable C4${dir} equal 0.5*(${C4neg}+${C4pos})
variable C41 equal 0.5*(${C4neg}+${C4pos})
variable C41 equal 0.5*(1.85763378001932+${C4pos})
variable C41 equal 0.5*(1.85763378001932+2.77867412686435)
variable C5${dir} equal 0.5*(${C5neg}+${C5pos})
variable C51 equal 0.5*(${C5neg}+${C5pos})
variable C51 equal 0.5*(0.46243573683796+${C5pos})
variable C51 equal 0.5*(0.46243573683796+0.34764159521148)
variable C6${dir} equal 0.5*(${C6neg}+${C6pos})
variable C61 equal 0.5*(${C6neg}+${C6pos})
variable C61 equal 0.5*(-0.363714244339801+${C6pos})
variable C61 equal 0.5*(-0.363714244339801+-0.211296768219356)

# Delete dir to make sure it is not reused

variable dir delete

# uyy Perturbation

variable dir equal 2
include displace.mod
# NOTE: This script should not need to be
# modified. See in.elastic for more info.
#
# Find which reference length to use

if "${dir} == 1" then    "variable len0 equal ${lx0}"
if "${dir} == 2" then    "variable len0 equal ${ly0}"
variable len0 equal ${ly0}
variable len0 equal 59.81132442
if "${dir} == 3" then    "variable len0 equal ${lz0}"
if "${dir} == 4" then    "variable len0 equal ${lz0}"
if "${dir} == 5" then    "variable len0 equal ${lz0}"
if "${dir} == 6" then    "variable len0 equal ${ly0}"

# Reset box and simulation parameters

clear
box tilt large
read_restart restart.equil
Reading restart file ...
  restart file = 24 Mar 2022, LAMMPS = 24 Mar 2022
  restoring atom style atomic from restart
  triclinic box = (0 0 0) to (69.064169 59.811324 87.316633) with tilt (-34.532084 0 0)
  4 by 3 by 4 MPI processor grid
  pair style nep stores no restart info
  13500 atoms
  read_restart CPU = 0.094 seconds
include potential.mod
# NOTE: This script can be modified for different pair styles
# See in.elastic for more info.

# we must undefine any fix ave/* fix before using reset_timestep
if "$(is_defined(fix,avp))" then "unfix avp"
reset_timestep 0

# MTP potential
pair_style  nep
pair_coeff  * * nep_y2026_m09_d04_h13_m17_s19_generation300000.txt Mg Bi


# Setup neighbor style
neighbor 1.0 nsq
neigh_modify once no every 1 delay 0 check yes

# Setup output

fix avp all ave/time  ${nevery} ${nrepeat} ${nfreq} c_thermo_press mode vector
fix avp all ave/time  10 ${nrepeat} ${nfreq} c_thermo_press mode vector
fix avp all ave/time  10 10 ${nfreq} c_thermo_press mode vector
fix avp all ave/time  10 10 100 c_thermo_press mode vector
thermo		${nthermo}
thermo		100
thermo_style custom step temp pe press f_avp[1] f_avp[2] f_avp[3] f_avp[4] f_avp[5] f_avp[6]
thermo_modify norm no

# Setup MD

timestep ${timestep}
timestep 0.001
fix 4 all nve
if "${thermostat} == 1" then    "fix 5 all langevin ${temp} ${temp} ${tdamp} ${seed}"
fix 5 all langevin ${temp} ${temp} ${tdamp} ${seed}
fix 5 all langevin 600 ${temp} ${tdamp} ${seed}
fix 5 all langevin 600 600 ${tdamp} ${seed}
fix 5 all langevin 600 600 0.01 ${seed}
fix 5 all langevin 600 600 0.01 123457



# Negative deformation

variable delta equal -${up}*${len0}
variable delta equal -0.02*${len0}
variable delta equal -0.02*59.81132442
variable deltaxy equal -${up}*xy
variable deltaxy equal -0.02*xy
variable deltaxz equal -${up}*xz
variable deltaxz equal -0.02*xz
variable deltayz equal -${up}*yz
variable deltayz equal -0.02*yz
if "${dir} == 1" then    "change_box all x delta 0 ${delta} xy delta ${deltaxy} xz delta ${deltaxz} remap units box"
if "${dir} == 2" then    "change_box all y delta 0 ${delta} yz delta ${deltayz} remap units box"
change_box all y delta 0 ${delta} yz delta ${deltayz} remap units box
change_box all y delta 0 -1.1962264884 yz delta ${deltayz} remap units box
change_box all y delta 0 -1.1962264884 yz delta -0 remap units box
Changing box ...
  triclinic box = (0 0 0) to (69.064169 58.615098 87.316633) with tilt (-34.532084 0 0)
  triclinic box = (0 0 0) to (69.064169 58.615098 87.316633) with tilt (-34.532084 0 0)
if "${dir} == 3" then    "change_box all z delta 0 ${delta} remap units box"
if "${dir} == 4" then    "change_box all yz delta ${delta} remap units box"
if "${dir} == 5" then    "change_box all xz delta ${delta} remap units box"
if "${dir} == 6" then    "change_box all xy delta ${delta} remap units box"

# Run MD

run ${nequil}
run 1000
Neighbor list info ...
  update every 1 steps, delay 0 steps, check yes
  max neighbors/atom: 2000, page size: 100000
  master list distance cutoff = 7
  ghost atom cutoff = 7
  1 neighbor lists, perpetual/occasional/extra = 1 0 0
  (1) pair nep, perpetual
      attributes: full, newton on
      pair build: full/nsq
      stencil: none
      bin: none
Per MPI rank memory allocation (min/avg/max) = 3.065 | 3.067 | 3.074 Mbytes
   Step          Temp          PotEng         Press         f_avp[1]       f_avp[2]       f_avp[3]       f_avp[4]       f_avp[5]       f_avp[6]   
         0   596.7845      -41118.818      23121.384      0              0              0              0              0              0            
       100   598.60361     -41152.838      22338.769      20852.917      28872.886      18101.366     -71.554629      181.97765      581.41866    
       200   595.64832     -41153.615      22252.563      21568.751      27195.924      18067.136      99.088861      2.9524834     -4.1279556    
       300   601.09539     -41155.458      22342.167      21608.901      27254.249      18052.96       359.78237     -109.27487      83.843103    
       400   594.75669     -41132.794      22552.911      21941.924      27327.748      18260.119      223.44103      39.312865     -60.431331    
       500   603.06781     -41139.7        22286.593      21810.538      27069.821      18192.368     -274.82895      323.34726     -73.86929     
       600   597.15691     -41134.961      22284.037      21951.998      26746.901      18123.601     -96.991991      284.1853      -200.11818    
       700   602.697       -41124.495      22317.117      22042.569      26730.301      18010.213     -54.516824      237.52643     -232.56383    
       800   597.90584     -41122.669      22285.856      21820.379      26690.637      18216.36      -263.57297      295.03335     -182.34113    
       900   596.88459     -41121.242      22266.449      22114.499      26602.642      18053.109     -191.64857      239.69794     -246.53873    
      1000   593.69        -41134.867      22064.508      21781.962      26840.997      18051.8        23.345657      102.07142     -70.805686    
Loop time of 15.7514 on 48 procs for 1000 steps with 13500 atoms

Performance: 5.485 ns/day, 4.375 hours/ns, 63.486 timesteps/s
99.6% CPU use with 48 MPI tasks x no OpenMP threads

MPI task timing breakdown:
Section |  min time  |  avg time  |  max time  |%varavg| %total
---------------------------------------------------------------
Pair    | 12.925     | 14.004     | 15.177     |  17.4 | 88.91
Neigh   | 0.042687   | 0.046614   | 0.050771   |   1.3 |  0.30
Comm    | 0.26898    | 1.4421     | 2.6091     |  54.7 |  9.16
Output  | 0.00044405 | 0.0004676  | 0.00061972 |   0.0 |  0.00
Modify  | 0.01923    | 0.026693   | 0.044224   |   4.3 |  0.17
Other   |            | 0.231      |            |       |  1.47

Nlocal:         281.25 ave         301 max         264 min
Histogram: 4 11 6 3 1 3 3 9 5 3
Nghost:        1269.04 ave        1308 max        1236 min
Histogram: 5 5 13 1 0 2 5 13 3 1
Neighs:              0 ave           0 max           0 min
Histogram: 48 0 0 0 0 0 0 0 0 0
FullNghs:      14740.4 ave       15803 max       13808 min
Histogram: 5 9 7 3 1 1 6 8 5 3

Total # of neighbors = 707540
Ave neighs/atom = 52.41037
Neighbor list builds = 23
Dangerous builds = 0
include potential.mod
# NOTE: This script can be modified for different pair styles
# See in.elastic for more info.

# we must undefine any fix ave/* fix before using reset_timestep
if "$(is_defined(fix,avp))" then "unfix avp"
unfix avp
reset_timestep 0

# MTP potential
pair_style  nep
pair_coeff  * * nep_y2026_m09_d04_h13_m17_s19_generation300000.txt Mg Bi


# Setup neighbor style
neighbor 1.0 nsq
neigh_modify once no every 1 delay 0 check yes

# Setup output

fix avp all ave/time  ${nevery} ${nrepeat} ${nfreq} c_thermo_press mode vector
fix avp all ave/time  10 ${nrepeat} ${nfreq} c_thermo_press mode vector
fix avp all ave/time  10 10 ${nfreq} c_thermo_press mode vector
fix avp all ave/time  10 10 100 c_thermo_press mode vector
thermo		${nthermo}
thermo		100
thermo_style custom step temp pe press f_avp[1] f_avp[2] f_avp[3] f_avp[4] f_avp[5] f_avp[6]
WARNING: New thermo_style command, previous thermo_modify settings will be lost (../output.cpp:896)
thermo_modify norm no

# Setup MD

timestep ${timestep}
timestep 0.001
fix 4 all nve
if "${thermostat} == 1" then    "fix 5 all langevin ${temp} ${temp} ${tdamp} ${seed}"
fix 5 all langevin ${temp} ${temp} ${tdamp} ${seed}
fix 5 all langevin 600 ${temp} ${tdamp} ${seed}
fix 5 all langevin 600 600 ${tdamp} ${seed}
fix 5 all langevin 600 600 0.01 ${seed}
fix 5 all langevin 600 600 0.01 123457


run ${nrun}
run 300
Per MPI rank memory allocation (min/avg/max) = 3.065 | 3.068 | 3.081 Mbytes
   Step          Temp          PotEng         Press         f_avp[1]       f_avp[2]       f_avp[3]       f_avp[4]       f_avp[5]       f_avp[6]   
         0   593.69        -41134.867      22064.508      0              0              0              0              0              0            
       100   603.69453     -41121.55       22103.545      21790.734      26562.538      18040.258     -105.43563      156.64992     -183.7379     
       200   594.79656     -41123.687      22108.922      21848.992      26671.541      17937.03      -140.01622      149.78015     -78.913698    
       300   596.07794     -41109.953      22349.869      21942.39       26629.956      18179.192      88.711395     -41.514506     -109.5615     
Loop time of 4.64757 on 48 procs for 300 steps with 13500 atoms

Performance: 5.577 ns/day, 4.303 hours/ns, 64.550 timesteps/s
99.6% CPU use with 48 MPI tasks x no OpenMP threads

MPI task timing breakdown:
Section |  min time  |  avg time  |  max time  |%varavg| %total
---------------------------------------------------------------
Pair    | 3.8705     | 4.2074     | 4.5347     |   9.4 | 90.53
Neigh   | 0.012949   | 0.01418    | 0.01536    |   0.7 |  0.31
Comm    | 0.058884   | 0.38217    | 0.72705    |  30.7 |  8.22
Output  | 0.00012236 | 0.0001327  | 0.00016998 |   0.0 |  0.00
Modify  | 0.0056149  | 0.0077711  | 0.010004   |   1.3 |  0.17
Other   |            | 0.03589    |            |       |  0.77

Nlocal:         281.25 ave         298 max         264 min
Histogram: 5 10 4 4 0 2 2 9 5 7
Nghost:        1270.81 ave        1300 max        1244 min
Histogram: 10 9 3 2 0 0 0 10 9 5
Neighs:              0 ave           0 max           0 min
Histogram: 48 0 0 0 0 0 0 0 0 0
FullNghs:      14748.3 ave       15768 max       13843 min
Histogram: 7 8 6 2 2 0 6 7 7 3

Total # of neighbors = 707920
Ave neighs/atom = 52.438519
Neighbor list builds = 7
Dangerous builds = 0

# Obtain new stress tensor

variable pxx1 equal f_avp[1]
variable pyy1 equal f_avp[2]
variable pzz1 equal f_avp[3]
variable pxy1 equal f_avp[4]
variable pxz1 equal f_avp[5]
variable pyz1 equal f_avp[6]

# Compute elastic constant from pressure tensor

variable C1neg equal ${d1}
variable C1neg equal 43.624837056757
variable C2neg equal ${d2}
variable C2neg equal 64.017779526318
variable C3neg equal ${d3}
variable C3neg equal 28.1291249165575
variable C4neg equal ${d4}
variable C4neg equal -1.02476094761508
variable C5neg equal ${d5}
variable C5neg equal -0.607281418857968
variable C6neg equal ${d6}
variable C6neg equal 0.258294324670566

# Reset box and simulation parameters

clear
box tilt large
read_restart restart.equil
Reading restart file ...
  restart file = 24 Mar 2022, LAMMPS = 24 Mar 2022
  restoring atom style atomic from restart
  triclinic box = (0 0 0) to (69.064169 59.811324 87.316633) with tilt (-34.532084 0 0)
  4 by 3 by 4 MPI processor grid
  pair style nep stores no restart info
  13500 atoms
  read_restart CPU = 0.004 seconds
include potential.mod
# NOTE: This script can be modified for different pair styles
# See in.elastic for more info.

# we must undefine any fix ave/* fix before using reset_timestep
if "$(is_defined(fix,avp))" then "unfix avp"
reset_timestep 0

# MTP potential
pair_style  nep
pair_coeff  * * nep_y2026_m09_d04_h13_m17_s19_generation300000.txt Mg Bi


# Setup neighbor style
neighbor 1.0 nsq
neigh_modify once no every 1 delay 0 check yes

# Setup output

fix avp all ave/time  ${nevery} ${nrepeat} ${nfreq} c_thermo_press mode vector
fix avp all ave/time  10 ${nrepeat} ${nfreq} c_thermo_press mode vector
fix avp all ave/time  10 10 ${nfreq} c_thermo_press mode vector
fix avp all ave/time  10 10 100 c_thermo_press mode vector
thermo		${nthermo}
thermo		100
thermo_style custom step temp pe press f_avp[1] f_avp[2] f_avp[3] f_avp[4] f_avp[5] f_avp[6]
thermo_modify norm no

# Setup MD

timestep ${timestep}
timestep 0.001
fix 4 all nve
if "${thermostat} == 1" then    "fix 5 all langevin ${temp} ${temp} ${tdamp} ${seed}"
fix 5 all langevin ${temp} ${temp} ${tdamp} ${seed}
fix 5 all langevin 600 ${temp} ${tdamp} ${seed}
fix 5 all langevin 600 600 ${tdamp} ${seed}
fix 5 all langevin 600 600 0.01 ${seed}
fix 5 all langevin 600 600 0.01 123457



# Positive deformation

variable delta equal ${up}*${len0}
variable delta equal 0.02*${len0}
variable delta equal 0.02*59.81132442
variable deltaxy equal ${up}*xy
variable deltaxy equal 0.02*xy
variable deltaxz equal ${up}*xz
variable deltaxz equal 0.02*xz
variable deltayz equal ${up}*yz
variable deltayz equal 0.02*yz
if "${dir} == 1" then    "change_box all x delta 0 ${delta} xy delta ${deltaxy} xz delta ${deltaxz} remap units box"
if "${dir} == 2" then    "change_box all y delta 0 ${delta} yz delta ${deltayz} remap units box"
change_box all y delta 0 ${delta} yz delta ${deltayz} remap units box
change_box all y delta 0 1.1962264884 yz delta ${deltayz} remap units box
change_box all y delta 0 1.1962264884 yz delta 0 remap units box
Changing box ...
  triclinic box = (0 0 0) to (69.064169 61.007551 87.316633) with tilt (-34.532084 0 0)
  triclinic box = (0 0 0) to (69.064169 61.007551 87.316633) with tilt (-34.532084 0 0)
if "${dir} == 3" then    "change_box all z delta 0 ${delta} remap units box"
if "${dir} == 4" then    "change_box all yz delta ${delta} remap units box"
if "${dir} == 5" then    "change_box all xz delta ${delta} remap units box"
if "${dir} == 6" then    "change_box all xy delta ${delta} remap units box"

# Run MD

run ${nequil}
run 1000
Neighbor list info ...
  update every 1 steps, delay 0 steps, check yes
  max neighbors/atom: 2000, page size: 100000
  master list distance cutoff = 7
  ghost atom cutoff = 7
  1 neighbor lists, perpetual/occasional/extra = 1 0 0
  (1) pair nep, perpetual
      attributes: full, newton on
      pair build: full/nsq
      stencil: none
      bin: none
Per MPI rank memory allocation (min/avg/max) = 3.065 | 3.067 | 3.073 Mbytes
   Step          Temp          PotEng         Press         f_avp[1]       f_avp[2]       f_avp[3]       f_avp[4]       f_avp[5]       f_avp[6]   
         0   596.7845      -41219.215      4369.806       0              0              0              0              0              0            
       100   605.95755     -41181.344      4933.8695      7071.2233      276.87594      6776.681      -66.425244      139.62432     -65.256848    
       200   602.13035     -41164.348      5059.3495      6555.9091      1672.8187      6563.6348      101.04279      10.392724      519.10888    
       300   594.08449     -41156.171      5026.4345      6323.9899      2151.7452      6753.9195      65.44398       44.084606      785.84184    
       400   594.85183     -41142.966      5195.1854      6421.0211      2223.2261      6949.5499     -72.835468      152.77071      628.61801    
       500   596.74369     -41150.495      5199.7438      6539.3686      2201.5701      6839.7827     -73.37723       197.05682      543.29594    
       600   600.36477     -41149.475      5290.5367      6909.688       2034.0993      6663.5366     -226.55826      158.56938      362.65834    
       700   597.04403     -41158.336      5190.9331      6688.1911      2402.3387      6809.8426     -114.65128      54.731572      598.69547    
       800   602.59042     -41141.007      5439.5508      6740.83        2151.4269      7122.0753      99.647466     -37.257119      411.21918    
       900   604.12236     -41130.628      5475.9977      7048.8181      2144.4501      7171.2773      21.133012      35.516373      412.6138     
      1000   599.5632      -41133.019      5541.1259      7127.035       2194.6165      7276.6206      40.719263      12.628399      431.72313    
Loop time of 15.613 on 48 procs for 1000 steps with 13500 atoms

Performance: 5.534 ns/day, 4.337 hours/ns, 64.049 timesteps/s
99.5% CPU use with 48 MPI tasks x no OpenMP threads

MPI task timing breakdown:
Section |  min time  |  avg time  |  max time  |%varavg| %total
---------------------------------------------------------------
Pair    | 12.618     | 13.638     | 14.602     |  16.9 | 87.35
Neigh   | 0.041531   | 0.045642   | 0.049583   |   1.3 |  0.29
Comm    | 0.49584    | 1.5212     | 2.6087     |  53.0 |  9.74
Output  | 0.00046948 | 0.00050323 | 0.00067374 |   0.0 |  0.00
Modify  | 0.048145   | 0.092463   | 0.14691    |   9.2 |  0.59
Other   |            | 0.3153     |            |       |  2.02

Nlocal:         281.25 ave         297 max         264 min
Histogram: 6 6 3 8 1 0 2 7 6 9
Nghost:        1248.27 ave        1283 max        1214 min
Histogram: 6 10 6 2 0 0 2 9 8 5
Neighs:              0 ave           0 max           0 min
Histogram: 48 0 0 0 0 0 0 0 0 0
FullNghs:      14051.8 ave       14905 max       13126 min
Histogram: 3 8 5 7 1 0 1 11 6 6

Total # of neighbors = 674484
Ave neighs/atom = 49.961778
Neighbor list builds = 23
Dangerous builds = 0
include potential.mod
# NOTE: This script can be modified for different pair styles
# See in.elastic for more info.

# we must undefine any fix ave/* fix before using reset_timestep
if "$(is_defined(fix,avp))" then "unfix avp"
unfix avp
reset_timestep 0

# MTP potential
pair_style  nep
pair_coeff  * * nep_y2026_m09_d04_h13_m17_s19_generation300000.txt Mg Bi


# Setup neighbor style
neighbor 1.0 nsq
neigh_modify once no every 1 delay 0 check yes

# Setup output

fix avp all ave/time  ${nevery} ${nrepeat} ${nfreq} c_thermo_press mode vector
fix avp all ave/time  10 ${nrepeat} ${nfreq} c_thermo_press mode vector
fix avp all ave/time  10 10 ${nfreq} c_thermo_press mode vector
fix avp all ave/time  10 10 100 c_thermo_press mode vector
thermo		${nthermo}
thermo		100
thermo_style custom step temp pe press f_avp[1] f_avp[2] f_avp[3] f_avp[4] f_avp[5] f_avp[6]
WARNING: New thermo_style command, previous thermo_modify settings will be lost (../output.cpp:896)
thermo_modify norm no

# Setup MD

timestep ${timestep}
timestep 0.001
fix 4 all nve
if "${thermostat} == 1" then    "fix 5 all langevin ${temp} ${temp} ${tdamp} ${seed}"
fix 5 all langevin ${temp} ${temp} ${tdamp} ${seed}
fix 5 all langevin 600 ${temp} ${tdamp} ${seed}
fix 5 all langevin 600 600 ${tdamp} ${seed}
fix 5 all langevin 600 600 0.01 ${seed}
fix 5 all langevin 600 600 0.01 123457


run ${nrun}
run 300
Per MPI rank memory allocation (min/avg/max) = 3.065 | 3.071 | 3.08 Mbytes
   Step          Temp          PotEng         Press         f_avp[1]       f_avp[2]       f_avp[3]       f_avp[4]       f_avp[5]       f_avp[6]   
         0   599.5632      -41133.019      5541.1259      0              0              0              0              0              0            
       100   602.91614     -41125.687      5525.9844      7073.1534      2436.8195      7036.8178      20.650317      8.3019478      508.43417    
       200   593.88948     -41121.047      5495.7041      6948.8523      2486.9101      6960.5471      20.772053      82.190509      518.01678    
       300   594.29029     -41118.928      5521.6847      6870.3229      2479.0906      7143.689       1.1872178      11.027583      516.94494    
Loop time of 4.55052 on 48 procs for 300 steps with 13500 atoms

Performance: 5.696 ns/day, 4.213 hours/ns, 65.927 timesteps/s
99.6% CPU use with 48 MPI tasks x no OpenMP threads

MPI task timing breakdown:
Section |  min time  |  avg time  |  max time  |%varavg| %total
---------------------------------------------------------------
Pair    | 3.7936     | 4.0917     | 4.4204     |   9.0 | 89.92
Neigh   | 0.012749   | 0.01391    | 0.015262   |   0.7 |  0.31
Comm    | 0.078831   | 0.39509    | 0.72273    |  28.5 |  8.68
Output  | 0.00010621 | 0.0001143  | 0.00016534 |   0.0 |  0.00
Modify  | 0.0054283  | 0.0081152  | 0.012643   |   3.0 |  0.18
Other   |            | 0.04155    |            |       |  0.91

Nlocal:         281.25 ave         298 max         265 min
Histogram: 5 8 7 4 0 0 7 4 9 4
Nghost:        1246.06 ave        1280 max        1207 min
Histogram: 3 6 8 7 0 0 1 7 9 7
Neighs:              0 ave           0 max           0 min
Histogram: 48 0 0 0 0 0 0 0 0 0
FullNghs:      14058.2 ave       14928 max       13217 min
Histogram: 7 5 9 3 0 0 3 9 9 3

Total # of neighbors = 674796
Ave neighs/atom = 49.984889
Neighbor list builds = 7
Dangerous builds = 0

# Obtain new stress tensor

variable pxx1 equal f_avp[1]
variable pyy1 equal f_avp[2]
variable pzz1 equal f_avp[3]
variable pxy1 equal f_avp[4]
variable pxz1 equal f_avp[5]
variable pyz1 equal f_avp[6]

# Compute elastic constant from pressure tensor

variable C1pos equal ${d1}
variable C1pos equal 31.7354966340508
variable C2pos equal ${d2}
variable C2pos equal 56.7365483995301
variable C3pos equal ${d3}
variable C3pos equal 27.0483902881401
variable C4pos equal ${d4}
variable C4pos equal -2.10777128563424
variable C5pos equal ${d5}
variable C5pos equal 0.344570971313516
variable C6pos equal ${d6}
variable C6pos equal 0.179326559802947

# Combine positive and negative

variable C1${dir} equal 0.5*(${C1neg}+${C1pos})
variable C12 equal 0.5*(${C1neg}+${C1pos})
variable C12 equal 0.5*(43.624837056757+${C1pos})
variable C12 equal 0.5*(43.624837056757+31.7354966340508)
variable C2${dir} equal 0.5*(${C2neg}+${C2pos})
variable C22 equal 0.5*(${C2neg}+${C2pos})
variable C22 equal 0.5*(64.017779526318+${C2pos})
variable C22 equal 0.5*(64.017779526318+56.7365483995301)
variable C3${dir} equal 0.5*(${C3neg}+${C3pos})
variable C32 equal 0.5*(${C3neg}+${C3pos})
variable C32 equal 0.5*(28.1291249165575+${C3pos})
variable C32 equal 0.5*(28.1291249165575+27.0483902881401)
variable C4${dir} equal 0.5*(${C4neg}+${C4pos})
variable C42 equal 0.5*(${C4neg}+${C4pos})
variable C42 equal 0.5*(-1.02476094761508+${C4pos})
variable C42 equal 0.5*(-1.02476094761508+-2.10777128563424)
variable C5${dir} equal 0.5*(${C5neg}+${C5pos})
variable C52 equal 0.5*(${C5neg}+${C5pos})
variable C52 equal 0.5*(-0.607281418857968+${C5pos})
variable C52 equal 0.5*(-0.607281418857968+0.344570971313516)
variable C6${dir} equal 0.5*(${C6neg}+${C6pos})
variable C62 equal 0.5*(${C6neg}+${C6pos})
variable C62 equal 0.5*(0.258294324670566+${C6pos})
variable C62 equal 0.5*(0.258294324670566+0.179326559802947)

# Delete dir to make sure it is not reused

variable dir delete

# uzz Perturbation

variable dir equal 3
include displace.mod
# NOTE: This script should not need to be
# modified. See in.elastic for more info.
#
# Find which reference length to use

if "${dir} == 1" then    "variable len0 equal ${lx0}"
if "${dir} == 2" then    "variable len0 equal ${ly0}"
if "${dir} == 3" then    "variable len0 equal ${lz0}"
variable len0 equal ${lz0}
variable len0 equal 87.316633332
if "${dir} == 4" then    "variable len0 equal ${lz0}"
if "${dir} == 5" then    "variable len0 equal ${lz0}"
if "${dir} == 6" then    "variable len0 equal ${ly0}"

# Reset box and simulation parameters

clear
box tilt large
read_restart restart.equil
Reading restart file ...
  restart file = 24 Mar 2022, LAMMPS = 24 Mar 2022
  restoring atom style atomic from restart
  triclinic box = (0 0 0) to (69.064169 59.811324 87.316633) with tilt (-34.532084 0 0)
  4 by 3 by 4 MPI processor grid
  pair style nep stores no restart info
  13500 atoms
  read_restart CPU = 0.167 seconds
include potential.mod
# NOTE: This script can be modified for different pair styles
# See in.elastic for more info.

# we must undefine any fix ave/* fix before using reset_timestep
if "$(is_defined(fix,avp))" then "unfix avp"
reset_timestep 0

# MTP potential
pair_style  nep
pair_coeff  * * nep_y2026_m09_d04_h13_m17_s19_generation300000.txt Mg Bi


# Setup neighbor style
neighbor 1.0 nsq
neigh_modify once no every 1 delay 0 check yes

# Setup output

fix avp all ave/time  ${nevery} ${nrepeat} ${nfreq} c_thermo_press mode vector
fix avp all ave/time  10 ${nrepeat} ${nfreq} c_thermo_press mode vector
fix avp all ave/time  10 10 ${nfreq} c_thermo_press mode vector
fix avp all ave/time  10 10 100 c_thermo_press mode vector
thermo		${nthermo}
thermo		100
thermo_style custom step temp pe press f_avp[1] f_avp[2] f_avp[3] f_avp[4] f_avp[5] f_avp[6]
thermo_modify norm no

# Setup MD

timestep ${timestep}
timestep 0.001
fix 4 all nve
if "${thermostat} == 1" then    "fix 5 all langevin ${temp} ${temp} ${tdamp} ${seed}"
fix 5 all langevin ${temp} ${temp} ${tdamp} ${seed}
fix 5 all langevin 600 ${temp} ${tdamp} ${seed}
fix 5 all langevin 600 600 ${tdamp} ${seed}
fix 5 all langevin 600 600 0.01 ${seed}
fix 5 all langevin 600 600 0.01 123457



# Negative deformation

variable delta equal -${up}*${len0}
variable delta equal -0.02*${len0}
variable delta equal -0.02*87.316633332
variable deltaxy equal -${up}*xy
variable deltaxy equal -0.02*xy
variable deltaxz equal -${up}*xz
variable deltaxz equal -0.02*xz
variable deltayz equal -${up}*yz
variable deltayz equal -0.02*yz
if "${dir} == 1" then    "change_box all x delta 0 ${delta} xy delta ${deltaxy} xz delta ${deltaxz} remap units box"
if "${dir} == 2" then    "change_box all y delta 0 ${delta} yz delta ${deltayz} remap units box"
if "${dir} == 3" then    "change_box all z delta 0 ${delta} remap units box"
change_box all z delta 0 ${delta} remap units box
change_box all z delta 0 -1.74633266664 remap units box
Changing box ...
  triclinic box = (0 0 0) to (69.064169 59.811324 85.570301) with tilt (-34.532084 0 0)
if "${dir} == 4" then    "change_box all yz delta ${delta} remap units box"
if "${dir} == 5" then    "change_box all xz delta ${delta} remap units box"
if "${dir} == 6" then    "change_box all xy delta ${delta} remap units box"

# Run MD

run ${nequil}
run 1000
Neighbor list info ...
  update every 1 steps, delay 0 steps, check yes
  max neighbors/atom: 2000, page size: 100000
  master list distance cutoff = 7
  ghost atom cutoff = 7
  1 neighbor lists, perpetual/occasional/extra = 1 0 0
  (1) pair nep, perpetual
      attributes: full, newton on
      pair build: full/nsq
      stencil: none
      bin: none
Per MPI rank memory allocation (min/avg/max) = 3.066 | 3.071 | 3.082 Mbytes
   Step          Temp          PotEng         Press         f_avp[1]       f_avp[2]       f_avp[3]       f_avp[4]       f_avp[5]       f_avp[6]   
         0   596.7845      -41124.056      23120.941      0              0              0              0              0              0            
       100   592.84265     -41145.958      22461.444      19588.393      19850.387      28622.976     -52.830252      137.70125      48.820233    
       200   594.96004     -41153.109      22236.908      19675.783      19925.664      27407.412      125.48776     -38.056576      45.592093    
       300   601.47806     -41137.252      22424.794      19848.239      19928.095      27175.235      222.83311     -102.05537     -56.5173      
       400   599.12164     -41141.403      22231.447      20221.011      19657.622      27108.17      -82.935126      50.984965     -195.27542    
       500   600.74916     -41135.34       22162.297      20072.708      19612.95       26814.521      299.2023      -204.07392     -116.40722    
       600   591.17493     -41126.589      22320.099      19838.664      19890.362      27300.305      154.98942     -195.46691     -28.457818    
       700   596.39913     -41126.923      22312.827      20201.405      19830.447      27088.961     -44.861264     -2.3459162     -76.990535    
       800   600.39591     -41118.016      22379.632      20066.973      20237.309      26860.616     -58.937905     -86.406157      127.80938    
       900   601.45458     -41117.692      22339.805      19766.854      20387.546      26778.628      162.23937     -132.02269      221.6744     
      1000   595.87068     -41125.698      22131.448      19593.817      20173.498      26726.966      54.352669     -110.00523      147.83477    
Loop time of 15.7382 on 48 procs for 1000 steps with 13500 atoms

Performance: 5.490 ns/day, 4.372 hours/ns, 63.540 timesteps/s
99.6% CPU use with 48 MPI tasks x no OpenMP threads

MPI task timing breakdown:
Section |  min time  |  avg time  |  max time  |%varavg| %total
---------------------------------------------------------------
Pair    | 12.923     | 14.024     | 15.135     |  17.2 | 89.11
Neigh   | 0.042617   | 0.046746   | 0.050883   |   1.3 |  0.30
Comm    | 0.25984    | 1.4081     | 2.5253     |  53.7 |  8.95
Output  | 0.00043364 | 0.00044927 | 0.00060381 |   0.0 |  0.00
Modify  | 0.01869    | 0.049236   | 0.09659    |  10.6 |  0.31
Other   |            | 0.2092     |            |       |  1.33

Nlocal:         281.25 ave         297 max         265 min
Histogram: 8 4 7 1 3 2 4 5 7 7
Nghost:        1283.62 ave        1321 max        1242 min
Histogram: 2 7 8 5 1 1 0 11 9 4
Neighs:              0 ave           0 max           0 min
Histogram: 48 0 0 0 0 0 0 0 0 0
FullNghs:      14568.6 ave       15404 max       13693 min
Histogram: 7 5 6 3 2 1 5 5 6 8

Total # of neighbors = 699294
Ave neighs/atom = 51.799556
Neighbor list builds = 23
Dangerous builds = 0
include potential.mod
# NOTE: This script can be modified for different pair styles
# See in.elastic for more info.

# we must undefine any fix ave/* fix before using reset_timestep
if "$(is_defined(fix,avp))" then "unfix avp"
unfix avp
reset_timestep 0

# MTP potential
pair_style  nep
pair_coeff  * * nep_y2026_m09_d04_h13_m17_s19_generation300000.txt Mg Bi


# Setup neighbor style
neighbor 1.0 nsq
neigh_modify once no every 1 delay 0 check yes

# Setup output

fix avp all ave/time  ${nevery} ${nrepeat} ${nfreq} c_thermo_press mode vector
fix avp all ave/time  10 ${nrepeat} ${nfreq} c_thermo_press mode vector
fix avp all ave/time  10 10 ${nfreq} c_thermo_press mode vector
fix avp all ave/time  10 10 100 c_thermo_press mode vector
thermo		${nthermo}
thermo		100
thermo_style custom step temp pe press f_avp[1] f_avp[2] f_avp[3] f_avp[4] f_avp[5] f_avp[6]
WARNING: New thermo_style command, previous thermo_modify settings will be lost (../output.cpp:896)
thermo_modify norm no

# Setup MD

timestep ${timestep}
timestep 0.001
fix 4 all nve
if "${thermostat} == 1" then    "fix 5 all langevin ${temp} ${temp} ${tdamp} ${seed}"
fix 5 all langevin ${temp} ${temp} ${tdamp} ${seed}
fix 5 all langevin 600 ${temp} ${tdamp} ${seed}
fix 5 all langevin 600 600 ${tdamp} ${seed}
fix 5 all langevin 600 600 0.01 ${seed}
fix 5 all langevin 600 600 0.01 123457


run ${nrun}
run 300
Per MPI rank memory allocation (min/avg/max) = 3.066 | 3.078 | 3.082 Mbytes
   Step          Temp          PotEng         Press         f_avp[1]       f_avp[2]       f_avp[3]       f_avp[4]       f_avp[5]       f_avp[6]   
         0   595.87068     -41125.698      22131.448      0              0              0              0              0              0            
       100   600.14483     -41120.071      22205.628      19781.449      20022.185      26829.684      21.93281      -66.911844      35.09498     
       200   599.40137     -41118.235      22242.876      19908.818      20055.799      26843.173      88.796157     -36.547432     -76.74915     
       300   598.10449     -41109.704      22342.184      19806.263      20329.518      26962.728     -102.10049      112.22273      47.349249    
Loop time of 4.82958 on 48 procs for 300 steps with 13500 atoms

Performance: 5.367 ns/day, 4.472 hours/ns, 62.117 timesteps/s
99.5% CPU use with 48 MPI tasks x no OpenMP threads

MPI task timing breakdown:
Section |  min time  |  avg time  |  max time  |%varavg| %total
---------------------------------------------------------------
Pair    | 3.8452     | 4.2134     | 4.5939     |   9.1 | 87.24
Neigh   | 0.012884   | 0.014259   | 0.015447   |   0.7 |  0.30
Comm    | 0.085446   | 0.45135    | 0.88772    |  30.1 |  9.35
Output  | 0.00010995 | 0.00012236 | 0.00037605 |   0.0 |  0.00
Modify  | 0.030315   | 0.035316   | 0.043021   |   2.1 |  0.73
Other   |            | 0.1151     |            |       |  2.38

Nlocal:         281.25 ave         299 max         265 min
Histogram: 6 8 7 2 1 1 3 14 5 1
Nghost:        1281.38 ave        1317 max        1244 min
Histogram: 5 4 11 2 2 0 2 8 10 4
Neighs:              0 ave           0 max           0 min
Histogram: 48 0 0 0 0 0 0 0 0 0
FullNghs:      14584.8 ave       15607 max       13666 min
Histogram: 6 8 4 5 1 0 6 12 5 1

Total # of neighbors = 700072
Ave neighs/atom = 51.857185
Neighbor list builds = 7
Dangerous builds = 0

# Obtain new stress tensor

variable pxx1 equal f_avp[1]
variable pyy1 equal f_avp[2]
variable pzz1 equal f_avp[3]
variable pxy1 equal f_avp[4]
variable pxz1 equal f_avp[5]
variable pyz1 equal f_avp[6]

# Compute elastic constant from pressure tensor

variable C1neg equal ${d1}
variable C1neg equal 32.9442033172315
variable C2neg equal ${d2}
variable C2neg equal 32.5155882909385
variable C3neg equal ${d3}
variable C3neg equal 72.046805177619
variable C4neg equal ${d4}
variable C4neg equal -0.240207179829892
variable C5neg equal ${d5}
variable C5neg equal 0.16140474667577
variable C6neg equal ${d6}
variable C6neg equal -0.69576508045497

# Reset box and simulation parameters

clear
box tilt large
read_restart restart.equil
Reading restart file ...
  restart file = 24 Mar 2022, LAMMPS = 24 Mar 2022
  restoring atom style atomic from restart
  triclinic box = (0 0 0) to (69.064169 59.811324 87.316633) with tilt (-34.532084 0 0)
  4 by 3 by 4 MPI processor grid
  pair style nep stores no restart info
  13500 atoms
  read_restart CPU = 0.090 seconds
include potential.mod
# NOTE: This script can be modified for different pair styles
# See in.elastic for more info.

# we must undefine any fix ave/* fix before using reset_timestep
if "$(is_defined(fix,avp))" then "unfix avp"
reset_timestep 0

# MTP potential
pair_style  nep
pair_coeff  * * nep_y2026_m09_d04_h13_m17_s19_generation300000.txt Mg Bi


# Setup neighbor style
neighbor 1.0 nsq
neigh_modify once no every 1 delay 0 check yes

# Setup output

fix avp all ave/time  ${nevery} ${nrepeat} ${nfreq} c_thermo_press mode vector
fix avp all ave/time  10 ${nrepeat} ${nfreq} c_thermo_press mode vector
fix avp all ave/time  10 10 ${nfreq} c_thermo_press mode vector
fix avp all ave/time  10 10 100 c_thermo_press mode vector
thermo		${nthermo}
thermo		100
thermo_style custom step temp pe press f_avp[1] f_avp[2] f_avp[3] f_avp[4] f_avp[5] f_avp[6]
thermo_modify norm no

# Setup MD

timestep ${timestep}
timestep 0.001
fix 4 all nve
if "${thermostat} == 1" then    "fix 5 all langevin ${temp} ${temp} ${tdamp} ${seed}"
fix 5 all langevin ${temp} ${temp} ${tdamp} ${seed}
fix 5 all langevin 600 ${temp} ${tdamp} ${seed}
fix 5 all langevin 600 600 ${tdamp} ${seed}
fix 5 all langevin 600 600 0.01 ${seed}
fix 5 all langevin 600 600 0.01 123457



# Positive deformation

variable delta equal ${up}*${len0}
variable delta equal 0.02*${len0}
variable delta equal 0.02*87.316633332
variable deltaxy equal ${up}*xy
variable deltaxy equal 0.02*xy
variable deltaxz equal ${up}*xz
variable deltaxz equal 0.02*xz
variable deltayz equal ${up}*yz
variable deltayz equal 0.02*yz
if "${dir} == 1" then    "change_box all x delta 0 ${delta} xy delta ${deltaxy} xz delta ${deltaxz} remap units box"
if "${dir} == 2" then    "change_box all y delta 0 ${delta} yz delta ${deltayz} remap units box"
if "${dir} == 3" then    "change_box all z delta 0 ${delta} remap units box"
change_box all z delta 0 ${delta} remap units box
change_box all z delta 0 1.74633266664 remap units box
Changing box ...
  triclinic box = (0 0 0) to (69.064169 59.811324 89.062966) with tilt (-34.532084 0 0)
if "${dir} == 4" then    "change_box all yz delta ${delta} remap units box"
if "${dir} == 5" then    "change_box all xz delta ${delta} remap units box"
if "${dir} == 6" then    "change_box all xy delta ${delta} remap units box"

# Run MD

run ${nequil}
run 1000
Neighbor list info ...
  update every 1 steps, delay 0 steps, check yes
  max neighbors/atom: 2000, page size: 100000
  master list distance cutoff = 7
  ghost atom cutoff = 7
  1 neighbor lists, perpetual/occasional/extra = 1 0 0
  (1) pair nep, perpetual
      attributes: full, newton on
      pair build: full/nsq
      stencil: none
      bin: none
Per MPI rank memory allocation (min/avg/max) = 3.065 | 3.066 | 3.067 Mbytes
   Step          Temp          PotEng         Press         f_avp[1]       f_avp[2]       f_avp[3]       f_avp[4]       f_avp[5]       f_avp[6]   
         0   596.7845      -41211.599      4342.7074      0              0              0              0              0              0            
       100   599.56736     -41165.217      5049.3433      8214.8575      8446.0958     -2480.2287     -23.040113      148.04129      78.248108    
       200   598.15664     -41166.911      5147.7575      8417.6446      8696.1989     -1723.351       192.42684     -11.539894      216.49412    
       300   598.16717     -41151.388      5300.1829      8516.6281      8710.4072     -1328.4822      180.60456     -111.93979      201.64651    
       400   602.19395     -41151.367      5255.8335      8209.7783      8663.8317     -1293.7453     -138.79407      111.08599      224.44439    
       500   595.13735     -41149.093      5204.3753      8419.2658      8603.3545     -1234.1129     -163.67451      99.008285      120.62509    
       600   600.06304     -41135.859      5511.1795      8483.9563      8614.1172     -902.14004      96.346898     -26.148436      121.50392    
       700   610.60522     -41129.931      5672.3644      8601.7997      8785.4749     -703.77713      131.5676      -169.20371      158.49591    
       800   601.03673     -41125.691      5621.934       8663.54        8905.5678     -451.80512     -13.917359     -103.66432      184.20824    
       900   597.74824     -41126.398      5595.1318      8692.3203      8704.5243     -625.28977     -62.721294      12.675127      107.63382    
      1000   600.38937     -41125.657      5613.7346      8861.6102      8648.3003     -526.85094      63.799344     -64.800286      50.179252    
Loop time of 15.3751 on 48 procs for 1000 steps with 13500 atoms

Performance: 5.619 ns/day, 4.271 hours/ns, 65.040 timesteps/s
99.6% CPU use with 48 MPI tasks x no OpenMP threads

MPI task timing breakdown:
Section |  min time  |  avg time  |  max time  |%varavg| %total
---------------------------------------------------------------
Pair    | 12.623     | 13.646     | 14.659     |  16.4 | 88.76
Neigh   | 0.041987   | 0.045961   | 0.049961   |   1.3 |  0.30
Comm    | 0.28026    | 1.3352     | 2.3326     |  53.0 |  8.68
Output  | 0.00041962 | 0.00044187 | 0.00057749 |   0.0 |  0.00
Modify  | 0.018449   | 0.038618   | 0.06907    |   9.6 |  0.25
Other   |            | 0.3086     |            |       |  2.01

Nlocal:         281.25 ave         299 max         265 min
Histogram: 7 5 9 3 0 0 6 12 1 5
Nghost:        1256.12 ave        1285 max        1220 min
Histogram: 4 4 12 4 0 0 0 2 8 14
Neighs:              0 ave           0 max           0 min
Histogram: 48 0 0 0 0 0 0 0 0 0
FullNghs:      14130.2 ave       15074 max       13248 min
Histogram: 7 5 9 2 1 0 8 6 5 5

Total # of neighbors = 678250
Ave neighs/atom = 50.240741
Neighbor list builds = 23
Dangerous builds = 0
include potential.mod
# NOTE: This script can be modified for different pair styles
# See in.elastic for more info.

# we must undefine any fix ave/* fix before using reset_timestep
if "$(is_defined(fix,avp))" then "unfix avp"
unfix avp
reset_timestep 0

# MTP potential
pair_style  nep
pair_coeff  * * nep_y2026_m09_d04_h13_m17_s19_generation300000.txt Mg Bi


# Setup neighbor style
neighbor 1.0 nsq
neigh_modify once no every 1 delay 0 check yes

# Setup output

fix avp all ave/time  ${nevery} ${nrepeat} ${nfreq} c_thermo_press mode vector
fix avp all ave/time  10 ${nrepeat} ${nfreq} c_thermo_press mode vector
fix avp all ave/time  10 10 ${nfreq} c_thermo_press mode vector
fix avp all ave/time  10 10 100 c_thermo_press mode vector
thermo		${nthermo}
thermo		100
thermo_style custom step temp pe press f_avp[1] f_avp[2] f_avp[3] f_avp[4] f_avp[5] f_avp[6]
WARNING: New thermo_style command, previous thermo_modify settings will be lost (../output.cpp:896)
thermo_modify norm no

# Setup MD

timestep ${timestep}
timestep 0.001
fix 4 all nve
if "${thermostat} == 1" then    "fix 5 all langevin ${temp} ${temp} ${tdamp} ${seed}"
fix 5 all langevin ${temp} ${temp} ${tdamp} ${seed}
fix 5 all langevin 600 ${temp} ${tdamp} ${seed}
fix 5 all langevin 600 600 ${tdamp} ${seed}
fix 5 all langevin 600 600 0.01 ${seed}
fix 5 all langevin 600 600 0.01 123457


run ${nrun}
run 300
Per MPI rank memory allocation (min/avg/max) = 3.065 | 3.067 | 3.073 Mbytes
   Step          Temp          PotEng         Press         f_avp[1]       f_avp[2]       f_avp[3]       f_avp[4]       f_avp[5]       f_avp[6]   
         0   600.38937     -41125.657      5613.7346      0              0              0              0              0              0            
       100   597.45599     -41117.789      5651.2452      8665.74        8589.0167     -588.59797     -204.50062      302.22279      88.507028    
       200   592.51496     -41121.012      5653.9721      8995.4337      8487.783      -416.08698     -99.157364      252.297       -24.10662     
       300   601.41507     -41102.556      5932.0283      9181.1905      8943.5727     -483.45262     -157.12307      172.11532      81.670133    
Loop time of 4.59848 on 48 procs for 300 steps with 13500 atoms

Performance: 5.637 ns/day, 4.258 hours/ns, 65.239 timesteps/s
99.6% CPU use with 48 MPI tasks x no OpenMP threads

MPI task timing breakdown:
Section |  min time  |  avg time  |  max time  |%varavg| %total
---------------------------------------------------------------
Pair    | 3.7431     | 4.0996     | 4.444      |   9.1 | 89.15
Neigh   | 0.010889   | 0.012005   | 0.013101   |   0.6 |  0.26
Comm    | 0.082596   | 0.40854    | 0.76027    |  29.1 |  8.88
Output  | 0.00013737 | 0.0001436  | 0.00018504 |   0.0 |  0.00
Modify  | 0.0054361  | 0.0078855  | 0.016504   |   3.3 |  0.17
Other   |            | 0.07029    |            |       |  1.53

Nlocal:         281.25 ave         299 max         262 min
Histogram: 1 9 8 3 2 1 4 10 6 4
Nghost:        1256.12 ave        1286 max        1220 min
Histogram: 2 11 8 2 1 0 0 3 8 13
Neighs:              0 ave           0 max           0 min
Histogram: 48 0 0 0 0 0 0 0 0 0
FullNghs:      14147.2 ave       15066 max       13076 min
Histogram: 1 4 12 4 2 1 4 5 10 5

Total # of neighbors = 679068
Ave neighs/atom = 50.301333
Neighbor list builds = 6
Dangerous builds = 0

# Obtain new stress tensor

variable pxx1 equal f_avp[1]
variable pyy1 equal f_avp[2]
variable pzz1 equal f_avp[3]
variable pxy1 equal f_avp[4]
variable pxz1 equal f_avp[5]
variable pyz1 equal f_avp[6]

# Compute elastic constant from pressure tensor

variable C1pos equal ${d1}
variable C1pos equal 20.1811586296758
variable C2pos equal ${d2}
variable C2pos equal 24.4141375568054
variable C3pos equal ${d3}
variable C3pos equal 65.1840983414562
variable C4pos equal ${d4}
variable C4pos equal 0.0686027586370975
variable C5pos equal ${d5}
variable C5pos equal -0.460867712770925
variable C6pos equal ${d6}
variable C6pos equal 0.970877979101

# Combine positive and negative

variable C1${dir} equal 0.5*(${C1neg}+${C1pos})
variable C13 equal 0.5*(${C1neg}+${C1pos})
variable C13 equal 0.5*(32.9442033172315+${C1pos})
variable C13 equal 0.5*(32.9442033172315+20.1811586296758)
variable C2${dir} equal 0.5*(${C2neg}+${C2pos})
variable C23 equal 0.5*(${C2neg}+${C2pos})
variable C23 equal 0.5*(32.5155882909385+${C2pos})
variable C23 equal 0.5*(32.5155882909385+24.4141375568054)
variable C3${dir} equal 0.5*(${C3neg}+${C3pos})
variable C33 equal 0.5*(${C3neg}+${C3pos})
variable C33 equal 0.5*(72.046805177619+${C3pos})
variable C33 equal 0.5*(72.046805177619+65.1840983414562)
variable C4${dir} equal 0.5*(${C4neg}+${C4pos})
variable C43 equal 0.5*(${C4neg}+${C4pos})
variable C43 equal 0.5*(-0.240207179829892+${C4pos})
variable C43 equal 0.5*(-0.240207179829892+0.0686027586370975)
variable C5${dir} equal 0.5*(${C5neg}+${C5pos})
variable C53 equal 0.5*(${C5neg}+${C5pos})
variable C53 equal 0.5*(0.16140474667577+${C5pos})
variable C53 equal 0.5*(0.16140474667577+-0.460867712770925)
variable C6${dir} equal 0.5*(${C6neg}+${C6pos})
variable C63 equal 0.5*(${C6neg}+${C6pos})
variable C63 equal 0.5*(-0.69576508045497+${C6pos})
variable C63 equal 0.5*(-0.69576508045497+0.970877979101)

# Delete dir to make sure it is not reused

variable dir delete

# uyz Perturbation

variable dir equal 4
include displace.mod
# NOTE: This script should not need to be
# modified. See in.elastic for more info.
#
# Find which reference length to use

if "${dir} == 1" then    "variable len0 equal ${lx0}"
if "${dir} == 2" then    "variable len0 equal ${ly0}"
if "${dir} == 3" then    "variable len0 equal ${lz0}"
if "${dir} == 4" then    "variable len0 equal ${lz0}"
variable len0 equal ${lz0}
variable len0 equal 87.316633332
if "${dir} == 5" then    "variable len0 equal ${lz0}"
if "${dir} == 6" then    "variable len0 equal ${ly0}"

# Reset box and simulation parameters

clear
box tilt large
read_restart restart.equil
Reading restart file ...
  restart file = 24 Mar 2022, LAMMPS = 24 Mar 2022
  restoring atom style atomic from restart
  triclinic box = (0 0 0) to (69.064169 59.811324 87.316633) with tilt (-34.532084 0 0)
  4 by 3 by 4 MPI processor grid
  pair style nep stores no restart info
  13500 atoms
  read_restart CPU = 0.220 seconds
include potential.mod
# NOTE: This script can be modified for different pair styles
# See in.elastic for more info.

# we must undefine any fix ave/* fix before using reset_timestep
if "$(is_defined(fix,avp))" then "unfix avp"
reset_timestep 0

# MTP potential
pair_style  nep
pair_coeff  * * nep_y2026_m09_d04_h13_m17_s19_generation300000.txt Mg Bi


# Setup neighbor style
neighbor 1.0 nsq
neigh_modify once no every 1 delay 0 check yes

# Setup output

fix avp all ave/time  ${nevery} ${nrepeat} ${nfreq} c_thermo_press mode vector
fix avp all ave/time  10 ${nrepeat} ${nfreq} c_thermo_press mode vector
fix avp all ave/time  10 10 ${nfreq} c_thermo_press mode vector
fix avp all ave/time  10 10 100 c_thermo_press mode vector
thermo		${nthermo}
thermo		100
thermo_style custom step temp pe press f_avp[1] f_avp[2] f_avp[3] f_avp[4] f_avp[5] f_avp[6]
thermo_modify norm no

# Setup MD

timestep ${timestep}
timestep 0.001
fix 4 all nve
if "${thermostat} == 1" then    "fix 5 all langevin ${temp} ${temp} ${tdamp} ${seed}"
fix 5 all langevin ${temp} ${temp} ${tdamp} ${seed}
fix 5 all langevin 600 ${temp} ${tdamp} ${seed}
fix 5 all langevin 600 600 ${tdamp} ${seed}
fix 5 all langevin 600 600 0.01 ${seed}
fix 5 all langevin 600 600 0.01 123457



# Negative deformation

variable delta equal -${up}*${len0}
variable delta equal -0.02*${len0}
variable delta equal -0.02*87.316633332
variable deltaxy equal -${up}*xy
variable deltaxy equal -0.02*xy
variable deltaxz equal -${up}*xz
variable deltaxz equal -0.02*xz
variable deltayz equal -${up}*yz
variable deltayz equal -0.02*yz
if "${dir} == 1" then    "change_box all x delta 0 ${delta} xy delta ${deltaxy} xz delta ${deltaxz} remap units box"
if "${dir} == 2" then    "change_box all y delta 0 ${delta} yz delta ${deltayz} remap units box"
if "${dir} == 3" then    "change_box all z delta 0 ${delta} remap units box"
if "${dir} == 4" then    "change_box all yz delta ${delta} remap units box"
change_box all yz delta ${delta} remap units box
change_box all yz delta -1.74633266664 remap units box
Changing box ...
  triclinic box = (0 0 0) to (69.064169 59.811324 87.316633) with tilt (-34.532084 0 -1.7463327)
if "${dir} == 5" then    "change_box all xz delta ${delta} remap units box"
if "${dir} == 6" then    "change_box all xy delta ${delta} remap units box"

# Run MD

run ${nequil}
run 1000
Neighbor list info ...
  update every 1 steps, delay 0 steps, check yes
  max neighbors/atom: 2000, page size: 100000
  master list distance cutoff = 7
  ghost atom cutoff = 7
  1 neighbor lists, perpetual/occasional/extra = 1 0 0
  (1) pair nep, perpetual
      attributes: full, newton on
      pair build: full/nsq
      stencil: none
      bin: none
Per MPI rank memory allocation (min/avg/max) = 3.065 | 3.066 | 3.067 Mbytes
   Step          Temp          PotEng         Press         f_avp[1]       f_avp[2]       f_avp[3]       f_avp[4]       f_avp[5]       f_avp[6]   
         0   596.7845      -41193.929      13210.137      0              0              0              0              0              0            
       100   604.55565     -41183.385      13280.725      13270.959      14076.223      12282.45       15.272844      102.49413      4230.4396    
       200   598.66008     -41171.375      13395.471      14106.75       13536.27       12307.821      85.468219     -15.871636      3700.6136    
       300   604.13366     -41178.07       13399.718      14399.321      13572.301      12245.297      174.50767      3.6320885      3649.0235    
       400   596.12786     -41159.989      13543.574      14400.53       13565.398      12376.776      45.273955     -31.857366      3593.9383    
       500   596.51357     -41164.374      13473.882      14420.559      13785.912      12483.325     -41.420677     -22.293134      3602.4069    
       600   595.19735     -41152.011      13630.653      14375.714      13657.029      12511.017      115.12971     -21.180018      3528.8324    
       700   598.54612     -41153.775      13504.38       14495.053      13646.612      12620.465     -0.32613395     30.578444      3435.4414    
       800   596.92642     -41149.874      13451.83       14243.609      13437.243      12629.691     -87.921378     -9.9052726      3405.3073    
       900   598.87419     -41142.065      13452.068      14311.091      13279.834      12769.138      28.422692     -0.23227918     3282.7955    
      1000   600.57424     -41163.98       13272.516      14182.428      13211.606      12638.33      -92.750656      19.071463      3260.3798    
Loop time of 15.6259 on 48 procs for 1000 steps with 13500 atoms

Performance: 5.529 ns/day, 4.341 hours/ns, 63.996 timesteps/s
99.5% CPU use with 48 MPI tasks x no OpenMP threads

MPI task timing breakdown:
Section |  min time  |  avg time  |  max time  |%varavg| %total
---------------------------------------------------------------
Pair    | 12.78      | 13.829     | 14.848     |  16.7 | 88.50
Neigh   | 0.042098   | 0.046316   | 0.050373   |   1.3 |  0.30
Comm    | 0.34396    | 1.3965     | 2.5656     |  53.0 |  8.94
Output  | 0.00046483 | 0.00048829 | 0.00064588 |   0.0 |  0.00
Modify  | 0.018519   | 0.03756    | 0.064078   |   7.6 |  0.24
Other   |            | 0.316      |            |       |  2.02

Nlocal:         281.25 ave         297 max         267 min
Histogram: 8 8 5 3 0 0 3 8 8 5
Nghost:        1266.02 ave        1296 max        1233 min
Histogram: 4 13 6 1 0 0 0 1 15 8
Neighs:              0 ave           0 max           0 min
Histogram: 48 0 0 0 0 0 0 0 0 0
FullNghs:      14350.8 ave       15216 max       13553 min
Histogram: 8 9 4 2 1 1 3 8 9 3

Total # of neighbors = 688836
Ave neighs/atom = 51.024889
Neighbor list builds = 23
Dangerous builds = 0
include potential.mod
# NOTE: This script can be modified for different pair styles
# See in.elastic for more info.

# we must undefine any fix ave/* fix before using reset_timestep
if "$(is_defined(fix,avp))" then "unfix avp"
unfix avp
reset_timestep 0

# MTP potential
pair_style  nep
pair_coeff  * * nep_y2026_m09_d04_h13_m17_s19_generation300000.txt Mg Bi


# Setup neighbor style
neighbor 1.0 nsq
neigh_modify once no every 1 delay 0 check yes

# Setup output

fix avp all ave/time  ${nevery} ${nrepeat} ${nfreq} c_thermo_press mode vector
fix avp all ave/time  10 ${nrepeat} ${nfreq} c_thermo_press mode vector
fix avp all ave/time  10 10 ${nfreq} c_thermo_press mode vector
fix avp all ave/time  10 10 100 c_thermo_press mode vector
thermo		${nthermo}
thermo		100
thermo_style custom step temp pe press f_avp[1] f_avp[2] f_avp[3] f_avp[4] f_avp[5] f_avp[6]
WARNING: New thermo_style command, previous thermo_modify settings will be lost (../output.cpp:896)
thermo_modify norm no

# Setup MD

timestep ${timestep}
timestep 0.001
fix 4 all nve
if "${thermostat} == 1" then    "fix 5 all langevin ${temp} ${temp} ${tdamp} ${seed}"
fix 5 all langevin ${temp} ${temp} ${tdamp} ${seed}
fix 5 all langevin 600 ${temp} ${tdamp} ${seed}
fix 5 all langevin 600 600 ${tdamp} ${seed}
fix 5 all langevin 600 600 0.01 ${seed}
fix 5 all langevin 600 600 0.01 123457


run ${nrun}
run 300
Per MPI rank memory allocation (min/avg/max) = 3.065 | 3.068 | 3.079 Mbytes
   Step          Temp          PotEng         Press         f_avp[1]       f_avp[2]       f_avp[3]       f_avp[4]       f_avp[5]       f_avp[6]   
         0   600.57424     -41163.98       13272.516      0              0              0              0              0              0            
       100   601.02111     -41155.198      13410.062      14189.425      13242.138      12393.604     -96.734188      3.0733128      3257.1589    
       200   602.47794     -41145.095      13446.065      14330.522      13405.275      12510.059      35.836195     -102.08128      3198.7646    
       300   598.82021     -41144.592      13413.757      14211.19       13537.557      12734.28       28.822081     -107.91145      3214.1145    
Loop time of 4.6031 on 48 procs for 300 steps with 13500 atoms

Performance: 5.631 ns/day, 4.262 hours/ns, 65.174 timesteps/s
99.6% CPU use with 48 MPI tasks x no OpenMP threads

MPI task timing breakdown:
Section |  min time  |  avg time  |  max time  |%varavg| %total
---------------------------------------------------------------
Pair    | 3.8386     | 4.1504     | 4.4761     |   8.9 | 90.17
Neigh   | 0.012806   | 0.014093   | 0.0153     |   0.7 |  0.31
Comm    | 0.051384   | 0.35823    | 0.6477     |  30.3 |  7.78
Output  | 0.00011762 | 0.00012955 | 0.00016844 |   0.0 |  0.00
Modify  | 0.0054946  | 0.007367   | 0.012341   |   2.1 |  0.16
Other   |            | 0.07288    |            |       |  1.58

Nlocal:         281.25 ave         298 max         263 min
Histogram: 3 4 11 5 1 0 5 4 10 5
Nghost:        1267.12 ave        1299 max        1235 min
Histogram: 5 10 8 1 0 0 2 7 8 7
Neighs:              0 ave           0 max           0 min
Histogram: 48 0 0 0 0 0 0 0 0 0
FullNghs:      14358.7 ave       15258 max       13428 min
Histogram: 3 7 11 3 0 1 4 4 10 5

Total # of neighbors = 689216
Ave neighs/atom = 51.053037
Neighbor list builds = 7
Dangerous builds = 0

# Obtain new stress tensor

variable pxx1 equal f_avp[1]
variable pyy1 equal f_avp[2]
variable pzz1 equal f_avp[3]
variable pxy1 equal f_avp[4]
variable pxz1 equal f_avp[5]
variable pyz1 equal f_avp[6]

# Compute elastic constant from pressure tensor

variable C1neg equal ${d1}
variable C1neg equal 4.968838448789
variable C2neg equal ${d2}
variable C2neg equal -1.444218576912
variable C3neg equal ${d3}
variable C3neg equal 0.904566718648503
variable C4neg equal ${d4}
variable C4neg equal 15.5936192701143
variable C5neg equal ${d5}
variable C5neg equal -0.939266137128855
variable C6neg equal ${d6}
variable C6neg equal -0.041152244313253

# Reset box and simulation parameters

clear
box tilt large
read_restart restart.equil
Reading restart file ...
  restart file = 24 Mar 2022, LAMMPS = 24 Mar 2022
  restoring atom style atomic from restart
  triclinic box = (0 0 0) to (69.064169 59.811324 87.316633) with tilt (-34.532084 0 0)
  4 by 3 by 4 MPI processor grid
  pair style nep stores no restart info
  13500 atoms
  read_restart CPU = 0.004 seconds
include potential.mod
# NOTE: This script can be modified for different pair styles
# See in.elastic for more info.

# we must undefine any fix ave/* fix before using reset_timestep
if "$(is_defined(fix,avp))" then "unfix avp"
reset_timestep 0

# MTP potential
pair_style  nep
pair_coeff  * * nep_y2026_m09_d04_h13_m17_s19_generation300000.txt Mg Bi


# Setup neighbor style
neighbor 1.0 nsq
neigh_modify once no every 1 delay 0 check yes

# Setup output

fix avp all ave/time  ${nevery} ${nrepeat} ${nfreq} c_thermo_press mode vector
fix avp all ave/time  10 ${nrepeat} ${nfreq} c_thermo_press mode vector
fix avp all ave/time  10 10 ${nfreq} c_thermo_press mode vector
fix avp all ave/time  10 10 100 c_thermo_press mode vector
thermo		${nthermo}
thermo		100
thermo_style custom step temp pe press f_avp[1] f_avp[2] f_avp[3] f_avp[4] f_avp[5] f_avp[6]
thermo_modify norm no

# Setup MD

timestep ${timestep}
timestep 0.001
fix 4 all nve
if "${thermostat} == 1" then    "fix 5 all langevin ${temp} ${temp} ${tdamp} ${seed}"
fix 5 all langevin ${temp} ${temp} ${tdamp} ${seed}
fix 5 all langevin 600 ${temp} ${tdamp} ${seed}
fix 5 all langevin 600 600 ${tdamp} ${seed}
fix 5 all langevin 600 600 0.01 ${seed}
fix 5 all langevin 600 600 0.01 123457



# Positive deformation

variable delta equal ${up}*${len0}
variable delta equal 0.02*${len0}
variable delta equal 0.02*87.316633332
variable deltaxy equal ${up}*xy
variable deltaxy equal 0.02*xy
variable deltaxz equal ${up}*xz
variable deltaxz equal 0.02*xz
variable deltayz equal ${up}*yz
variable deltayz equal 0.02*yz
if "${dir} == 1" then    "change_box all x delta 0 ${delta} xy delta ${deltaxy} xz delta ${deltaxz} remap units box"
if "${dir} == 2" then    "change_box all y delta 0 ${delta} yz delta ${deltayz} remap units box"
if "${dir} == 3" then    "change_box all z delta 0 ${delta} remap units box"
if "${dir} == 4" then    "change_box all yz delta ${delta} remap units box"
change_box all yz delta ${delta} remap units box
change_box all yz delta 1.74633266664 remap units box
Changing box ...
  triclinic box = (0 0 0) to (69.064169 59.811324 87.316633) with tilt (-34.532084 0 1.7463327)
if "${dir} == 5" then    "change_box all xz delta ${delta} remap units box"
if "${dir} == 6" then    "change_box all xy delta ${delta} remap units box"

# Run MD

run ${nequil}
run 1000
Neighbor list info ...
  update every 1 steps, delay 0 steps, check yes
  max neighbors/atom: 2000, page size: 100000
  master list distance cutoff = 7
  ghost atom cutoff = 7
  1 neighbor lists, perpetual/occasional/extra = 1 0 0
  (1) pair nep, perpetual
      attributes: full, newton on
      pair build: full/nsq
      stencil: none
      bin: none
Per MPI rank memory allocation (min/avg/max) = 3.065 | 3.066 | 3.067 Mbytes
   Step          Temp          PotEng         Press         f_avp[1]       f_avp[2]       f_avp[3]       f_avp[4]       f_avp[5]       f_avp[6]   
         0   596.7845      -41195.748      13197.093      0              0              0              0              0              0            
       100   603.6092      -41186.153      13256.348      13936.417      13410.962      12303.212     -77.228818      184.73123     -4133.7784    
       200   597.42207     -41174.255      13413.128      13351.07       14048.409      12329.11       205.02412     -107.74745     -3654.0264    
       300   601.20413     -41168.747      13406.106      13488.047      14056.143      12594.464      198.54152     -57.221282     -3640.0624    
       400   605.06927     -41163.318      13559.991      13497.778      14427.292      12727.604      305.6492      -193.95602     -3437.553     
       500   597.94036     -41165.015      13417.869      13589.815      14181.73       12412.019      118.8377      -114.01229     -3504.9304    
       600   595.95089     -41153.4        13491.975      13647.252      14126.111      12752.252      141.97629     -54.487981     -3484.1452    
       700   597.22443     -41152.648      13523.315      13644.317      14262.759      12609.465      76.770068      26.31603      -3443.7997    
       800   601.51306     -41159.468      13504.227      13721.417      14074.232      12442.58      -41.426137     -48.095139     -3556.6749    
       900   598.39044     -41152.832      13535.564      13754.226      14104.273      12651.145      46.279753     -7.9930977     -3442.0143    
      1000   597.32943     -41160.418      13393.429      13442.084      14280.388      12572.057      64.052004      45.310005     -3264.9598    
Loop time of 15.6739 on 48 procs for 1000 steps with 13500 atoms

Performance: 5.512 ns/day, 4.354 hours/ns, 63.800 timesteps/s
99.5% CPU use with 48 MPI tasks x no OpenMP threads

MPI task timing breakdown:
Section |  min time  |  avg time  |  max time  |%varavg| %total
---------------------------------------------------------------
Pair    | 12.715     | 13.827     | 14.951     |  16.9 | 88.21
Neigh   | 0.042188   | 0.046266   | 0.050202   |   1.3 |  0.30
Comm    | 0.46564    | 1.4719     | 2.5225     |  48.1 |  9.39
Output  | 0.00046102 | 0.00048782 | 0.000636   |   0.0 |  0.00
Modify  | 0.041219   | 0.06762    | 0.10572    |   7.2 |  0.43
Other   |            | 0.2611     |            |       |  1.67

Nlocal:         281.25 ave         297 max         265 min
Histogram: 4 11 4 5 0 0 3 7 9 5
Nghost:        1266.67 ave        1302 max        1231 min
Histogram: 5 10 7 2 0 0 1 9 9 5
Neighs:              0 ave           0 max           0 min
Histogram: 48 0 0 0 0 0 0 0 0 0
FullNghs:      14342.1 ave       15224 max       13475 min
Histogram: 4 12 4 3 1 0 4 10 4 6

Total # of neighbors = 688420
Ave neighs/atom = 50.994074
Neighbor list builds = 23
Dangerous builds = 0
include potential.mod
# NOTE: This script can be modified for different pair styles
# See in.elastic for more info.

# we must undefine any fix ave/* fix before using reset_timestep
if "$(is_defined(fix,avp))" then "unfix avp"
unfix avp
reset_timestep 0

# MTP potential
pair_style  nep
pair_coeff  * * nep_y2026_m09_d04_h13_m17_s19_generation300000.txt Mg Bi


# Setup neighbor style
neighbor 1.0 nsq
neigh_modify once no every 1 delay 0 check yes

# Setup output

fix avp all ave/time  ${nevery} ${nrepeat} ${nfreq} c_thermo_press mode vector
fix avp all ave/time  10 ${nrepeat} ${nfreq} c_thermo_press mode vector
fix avp all ave/time  10 10 ${nfreq} c_thermo_press mode vector
fix avp all ave/time  10 10 100 c_thermo_press mode vector
thermo		${nthermo}
thermo		100
thermo_style custom step temp pe press f_avp[1] f_avp[2] f_avp[3] f_avp[4] f_avp[5] f_avp[6]
WARNING: New thermo_style command, previous thermo_modify settings will be lost (../output.cpp:896)
thermo_modify norm no

# Setup MD

timestep ${timestep}
timestep 0.001
fix 4 all nve
if "${thermostat} == 1" then    "fix 5 all langevin ${temp} ${temp} ${tdamp} ${seed}"
fix 5 all langevin ${temp} ${temp} ${tdamp} ${seed}
fix 5 all langevin 600 ${temp} ${tdamp} ${seed}
fix 5 all langevin 600 600 ${tdamp} ${seed}
fix 5 all langevin 600 600 0.01 ${seed}
fix 5 all langevin 600 600 0.01 123457


run ${nrun}
run 300
Per MPI rank memory allocation (min/avg/max) = 3.065 | 3.068 | 3.074 Mbytes
   Step          Temp          PotEng         Press         f_avp[1]       f_avp[2]       f_avp[3]       f_avp[4]       f_avp[5]       f_avp[6]   
         0   597.32943     -41160.418      13393.429      0              0              0              0              0              0            
       100   604.28696     -41144.738      13502.337      13540.231      14375.739      12513.502     -271.9758       311.43263     -3261.787     
       200   593.6987      -41136.222      13588.473      13686.107      14478.256      12568.36       52.7926        119.42553     -3214.9355    
       300   602.87428     -41128.26       13709.438      13800.66       14424.512      12567.822      101.02536      115.85563     -3291.5999    
Loop time of 4.72652 on 48 procs for 300 steps with 13500 atoms

Performance: 5.484 ns/day, 4.376 hours/ns, 63.472 timesteps/s
99.6% CPU use with 48 MPI tasks x no OpenMP threads

MPI task timing breakdown:
Section |  min time  |  avg time  |  max time  |%varavg| %total
---------------------------------------------------------------
Pair    | 3.8203     | 4.1574     | 4.5093     |   9.6 | 87.96
Neigh   | 0.011014   | 0.012102   | 0.013221   |   0.7 |  0.26
Comm    | 0.10201    | 0.4441     | 0.82462    |  29.6 |  9.40
Output  | 0.00013503 | 0.00014399 | 0.00019138 |   0.0 |  0.00
Modify  | 0.0054996  | 0.0080226  | 0.014125   |   2.7 |  0.17
Other   |            | 0.1048     |            |       |  2.22

Nlocal:         281.25 ave         298 max         264 min
Histogram: 6 2 12 3 1 0 2 8 9 5
Nghost:        1266.29 ave        1300 max        1238 min
Histogram: 15 7 2 0 0 0 1 12 6 5
Neighs:              0 ave           0 max           0 min
Histogram: 48 0 0 0 0 0 0 0 0 0
FullNghs:      14358.2 ave       15259 max       13395 min
Histogram: 4 5 11 3 1 1 2 7 10 4

Total # of neighbors = 689196
Ave neighs/atom = 51.051556
Neighbor list builds = 6
Dangerous builds = 0

# Obtain new stress tensor

variable pxx1 equal f_avp[1]
variable pyy1 equal f_avp[2]
variable pzz1 equal f_avp[3]
variable pxy1 equal f_avp[4]
variable pxz1 equal f_avp[5]
variable pyz1 equal f_avp[6]

# Compute elastic constant from pressure tensor

variable C1pos equal ${d1}
variable C1pos equal -2.91618904486149
variable C2pos equal ${d2}
variable C2pos equal -2.990558300771
variable C3pos equal ${d3}
variable C3pos equal -0.0722752644535012
variable C4pos equal ${d4}
variable C4pos equal 16.9349530773292
variable C5pos equal ${d5}
variable C5pos equal -0.179569253968805
variable C6pos equal ${d6}
variable C6pos equal -0.31986415865975

# Combine positive and negative

variable C1${dir} equal 0.5*(${C1neg}+${C1pos})
variable C14 equal 0.5*(${C1neg}+${C1pos})
variable C14 equal 0.5*(4.968838448789+${C1pos})
variable C14 equal 0.5*(4.968838448789+-2.91618904486149)
variable C2${dir} equal 0.5*(${C2neg}+${C2pos})
variable C24 equal 0.5*(${C2neg}+${C2pos})
variable C24 equal 0.5*(-1.444218576912+${C2pos})
variable C24 equal 0.5*(-1.444218576912+-2.990558300771)
variable C3${dir} equal 0.5*(${C3neg}+${C3pos})
variable C34 equal 0.5*(${C3neg}+${C3pos})
variable C34 equal 0.5*(0.904566718648503+${C3pos})
variable C34 equal 0.5*(0.904566718648503+-0.0722752644535012)
variable C4${dir} equal 0.5*(${C4neg}+${C4pos})
variable C44 equal 0.5*(${C4neg}+${C4pos})
variable C44 equal 0.5*(15.5936192701143+${C4pos})
variable C44 equal 0.5*(15.5936192701143+16.9349530773292)
variable C5${dir} equal 0.5*(${C5neg}+${C5pos})
variable C54 equal 0.5*(${C5neg}+${C5pos})
variable C54 equal 0.5*(-0.939266137128855+${C5pos})
variable C54 equal 0.5*(-0.939266137128855+-0.179569253968805)
variable C6${dir} equal 0.5*(${C6neg}+${C6pos})
variable C64 equal 0.5*(${C6neg}+${C6pos})
variable C64 equal 0.5*(-0.041152244313253+${C6pos})
variable C64 equal 0.5*(-0.041152244313253+-0.31986415865975)

# Delete dir to make sure it is not reused

variable dir delete

# uxz Perturbation

variable dir equal 5
include displace.mod
# NOTE: This script should not need to be
# modified. See in.elastic for more info.
#
# Find which reference length to use

if "${dir} == 1" then    "variable len0 equal ${lx0}"
if "${dir} == 2" then    "variable len0 equal ${ly0}"
if "${dir} == 3" then    "variable len0 equal ${lz0}"
if "${dir} == 4" then    "variable len0 equal ${lz0}"
if "${dir} == 5" then    "variable len0 equal ${lz0}"
variable len0 equal ${lz0}
variable len0 equal 87.316633332
if "${dir} == 6" then    "variable len0 equal ${ly0}"

# Reset box and simulation parameters

clear
box tilt large
read_restart restart.equil
Reading restart file ...
  restart file = 24 Mar 2022, LAMMPS = 24 Mar 2022
  restoring atom style atomic from restart
  triclinic box = (0 0 0) to (69.064169 59.811324 87.316633) with tilt (-34.532084 0 0)
  4 by 3 by 4 MPI processor grid
  pair style nep stores no restart info
  13500 atoms
  read_restart CPU = 0.092 seconds
include potential.mod
# NOTE: This script can be modified for different pair styles
# See in.elastic for more info.

# we must undefine any fix ave/* fix before using reset_timestep
if "$(is_defined(fix,avp))" then "unfix avp"
reset_timestep 0

# MTP potential
pair_style  nep
pair_coeff  * * nep_y2026_m09_d04_h13_m17_s19_generation300000.txt Mg Bi


# Setup neighbor style
neighbor 1.0 nsq
neigh_modify once no every 1 delay 0 check yes

# Setup output

fix avp all ave/time  ${nevery} ${nrepeat} ${nfreq} c_thermo_press mode vector
fix avp all ave/time  10 ${nrepeat} ${nfreq} c_thermo_press mode vector
fix avp all ave/time  10 10 ${nfreq} c_thermo_press mode vector
fix avp all ave/time  10 10 100 c_thermo_press mode vector
thermo		${nthermo}
thermo		100
thermo_style custom step temp pe press f_avp[1] f_avp[2] f_avp[3] f_avp[4] f_avp[5] f_avp[6]
thermo_modify norm no

# Setup MD

timestep ${timestep}
timestep 0.001
fix 4 all nve
if "${thermostat} == 1" then    "fix 5 all langevin ${temp} ${temp} ${tdamp} ${seed}"
fix 5 all langevin ${temp} ${temp} ${tdamp} ${seed}
fix 5 all langevin 600 ${temp} ${tdamp} ${seed}
fix 5 all langevin 600 600 ${tdamp} ${seed}
fix 5 all langevin 600 600 0.01 ${seed}
fix 5 all langevin 600 600 0.01 123457



# Negative deformation

variable delta equal -${up}*${len0}
variable delta equal -0.02*${len0}
variable delta equal -0.02*87.316633332
variable deltaxy equal -${up}*xy
variable deltaxy equal -0.02*xy
variable deltaxz equal -${up}*xz
variable deltaxz equal -0.02*xz
variable deltayz equal -${up}*yz
variable deltayz equal -0.02*yz
if "${dir} == 1" then    "change_box all x delta 0 ${delta} xy delta ${deltaxy} xz delta ${deltaxz} remap units box"
if "${dir} == 2" then    "change_box all y delta 0 ${delta} yz delta ${deltayz} remap units box"
if "${dir} == 3" then    "change_box all z delta 0 ${delta} remap units box"
if "${dir} == 4" then    "change_box all yz delta ${delta} remap units box"
if "${dir} == 5" then    "change_box all xz delta ${delta} remap units box"
change_box all xz delta ${delta} remap units box
change_box all xz delta -1.74633266664 remap units box
Changing box ...
  triclinic box = (0 0 0) to (69.064169 59.811324 87.316633) with tilt (-34.532084 -1.7463327 0)
if "${dir} == 6" then    "change_box all xy delta ${delta} remap units box"

# Run MD

run ${nequil}
run 1000
Neighbor list info ...
  update every 1 steps, delay 0 steps, check yes
  max neighbors/atom: 2000, page size: 100000
  master list distance cutoff = 7
  ghost atom cutoff = 7
  1 neighbor lists, perpetual/occasional/extra = 1 0 0
  (1) pair nep, perpetual
      attributes: full, newton on
      pair build: full/nsq
      stencil: none
      bin: none
Per MPI rank memory allocation (min/avg/max) = 3.065 | 3.066 | 3.067 Mbytes
   Step          Temp          PotEng         Press         f_avp[1]       f_avp[2]       f_avp[3]       f_avp[4]       f_avp[5]       f_avp[6]   
         0   596.7845      -41194.064      13212.609      0              0              0              0              0              0            
       100   602.91775     -41182.55       13335.408      13517.352      13899.204      12303.231     -353.82624      4288.1659      83.875044    
       200   598.23949     -41189.026      13190.649      13445.031      13981.905      12281.96       188.70598      3730.3303      215.05886    
       300   601.43303     -41175.61       13405.473      13557.536      14025.869      12371.419      405.76291      3518.3531      147.41341    
       400   599.54748     -41169.813      13465.008      13873.569      14025.575      12424.766      353.97331      3565.3651      90.473749    
       500   600.77193     -41166.759      13534.251      13737.052      14189.018      12578.193      305.80406      3451.4644      158.12672    
       600   601.57724     -41169.283      13427.447      13855.733      13760.417      12714.865      406.51129      3310.9447     -94.609856    
       700   596.73087     -41161.625      13499.717      13743.254      14078.361      12587.637      431.85445      3219.9779      213.03713    
       800   601.52725     -41155.695      13430.212      13824.473      14302.312      12442.373      563.96955      3165.7766      203.69454    
       900   599.65045     -41162.903      13289.387      13839.555      13871.151      12359.038      412.51897      3244.238       76.436315    
      1000   599.28118     -41155.526      13425.429      13558.021      14070.429      12380.533      504.97843      3211.5246      162.69286    
Loop time of 15.5072 on 48 procs for 1000 steps with 13500 atoms

Performance: 5.572 ns/day, 4.308 hours/ns, 64.486 timesteps/s
99.6% CPU use with 48 MPI tasks x no OpenMP threads

MPI task timing breakdown:
Section |  min time  |  avg time  |  max time  |%varavg| %total
---------------------------------------------------------------
Pair    | 12.693     | 13.831     | 14.923     |  16.9 | 89.19
Neigh   | 0.043681   | 0.048258   | 0.052826   |   1.3 |  0.31
Comm    | 0.26274    | 1.3486     | 2.403      |  53.2 |  8.70
Output  | 0.00044294 | 0.00046611 | 0.0006028  |   0.0 |  0.00
Modify  | 0.01846    | 0.027469   | 0.041489   |   4.1 |  0.18
Other   |            | 0.2513     |            |       |  1.62

Nlocal:         281.25 ave         302 max         262 min
Histogram: 2 4 14 3 1 2 8 6 4 4
Nghost:        1265.54 ave        1297 max        1233 min
Histogram: 7 8 8 1 0 0 2 5 8 9
Neighs:              0 ave           0 max           0 min
Histogram: 48 0 0 0 0 0 0 0 0 0
FullNghs:      14345.4 ave       15406 max       13442 min
Histogram: 4 11 7 1 1 5 6 5 3 5

Total # of neighbors = 688580
Ave neighs/atom = 51.005926
Neighbor list builds = 24
Dangerous builds = 0
include potential.mod
# NOTE: This script can be modified for different pair styles
# See in.elastic for more info.

# we must undefine any fix ave/* fix before using reset_timestep
if "$(is_defined(fix,avp))" then "unfix avp"
unfix avp
reset_timestep 0

# MTP potential
pair_style  nep
pair_coeff  * * nep_y2026_m09_d04_h13_m17_s19_generation300000.txt Mg Bi


# Setup neighbor style
neighbor 1.0 nsq
neigh_modify once no every 1 delay 0 check yes

# Setup output

fix avp all ave/time  ${nevery} ${nrepeat} ${nfreq} c_thermo_press mode vector
fix avp all ave/time  10 ${nrepeat} ${nfreq} c_thermo_press mode vector
fix avp all ave/time  10 10 ${nfreq} c_thermo_press mode vector
fix avp all ave/time  10 10 100 c_thermo_press mode vector
thermo		${nthermo}
thermo		100
thermo_style custom step temp pe press f_avp[1] f_avp[2] f_avp[3] f_avp[4] f_avp[5] f_avp[6]
WARNING: New thermo_style command, previous thermo_modify settings will be lost (../output.cpp:896)
thermo_modify norm no

# Setup MD

timestep ${timestep}
timestep 0.001
fix 4 all nve
if "${thermostat} == 1" then    "fix 5 all langevin ${temp} ${temp} ${tdamp} ${seed}"
fix 5 all langevin ${temp} ${temp} ${tdamp} ${seed}
fix 5 all langevin 600 ${temp} ${tdamp} ${seed}
fix 5 all langevin 600 600 ${tdamp} ${seed}
fix 5 all langevin 600 600 0.01 ${seed}
fix 5 all langevin 600 600 0.01 123457


run ${nrun}
run 300
Per MPI rank memory allocation (min/avg/max) = 3.065 | 3.068 | 3.074 Mbytes
   Step          Temp          PotEng         Press         f_avp[1]       f_avp[2]       f_avp[3]       f_avp[4]       f_avp[5]       f_avp[6]   
         0   599.28118     -41155.526      13425.429      0              0              0              0              0              0            
       100   597.24926     -41148.316      13401.656      14033.27       13896.488      12510.96       675.04314      3028.2878     -87.783277    
       200   596.39121     -41143.146      13444.749      13709.088      13925.643      12495.807      610.3285       2995.3798      105.67548    
       300   606.08401     -41148.447      13318.332      13778.89       13824.613      12652.917      547.47944      3068.5992      78.700977    
Loop time of 4.72175 on 48 procs for 300 steps with 13500 atoms

Performance: 5.489 ns/day, 4.372 hours/ns, 63.536 timesteps/s
99.5% CPU use with 48 MPI tasks x no OpenMP threads

MPI task timing breakdown:
Section |  min time  |  avg time  |  max time  |%varavg| %total
---------------------------------------------------------------
Pair    | 3.8175     | 4.1537     | 4.507      |   9.4 | 87.97
Neigh   | 0.011033   | 0.012088   | 0.013234   |   0.6 |  0.26
Comm    | 0.079856   | 0.46999    | 0.83918    |  29.2 |  9.95
Output  | 0.00012321 | 0.00013014 | 0.00016859 |   0.0 |  0.00
Modify  | 0.00556    | 0.01787    | 0.036469   |   9.2 |  0.38
Other   |            | 0.06794    |            |       |  1.44

Nlocal:         281.25 ave         303 max         266 min
Histogram: 8 11 5 1 2 3 5 10 2 1
Nghost:        1264.88 ave        1296 max        1234 min
Histogram: 6 11 7 0 0 2 2 4 7 9
Neighs:              0 ave           0 max           0 min
Histogram: 48 0 0 0 0 0 0 0 0 0
FullNghs:      14370.9 ave       15599 max       13511 min
Histogram: 9 10 5 1 2 3 8 6 3 1

Total # of neighbors = 689804
Ave neighs/atom = 51.096593
Neighbor list builds = 6
Dangerous builds = 0

# Obtain new stress tensor

variable pxx1 equal f_avp[1]
variable pyy1 equal f_avp[2]
variable pzz1 equal f_avp[3]
variable pxy1 equal f_avp[4]
variable pxz1 equal f_avp[5]
variable pyz1 equal f_avp[6]

# Compute elastic constant from pressure tensor

variable C1neg equal ${d1}
variable C1neg equal 2.8073375363525
variable C2neg equal ${d2}
variable C2neg equal -0.00893711579649789
variable C3neg equal ${d3}
variable C3neg equal 0.497748994939502
variable C4neg equal ${d4}
variable C4neg equal -0.0834485424144955
variable C5neg equal ${d5}
variable C5neg equal 14.9432869896944
variable C6neg equal ${d6}
variable C6neg equal 2.55213453800336

# Reset box and simulation parameters

clear
box tilt large
read_restart restart.equil
Reading restart file ...
  restart file = 24 Mar 2022, LAMMPS = 24 Mar 2022
  restoring atom style atomic from restart
  triclinic box = (0 0 0) to (69.064169 59.811324 87.316633) with tilt (-34.532084 0 0)
  4 by 3 by 4 MPI processor grid
  pair style nep stores no restart info
  13500 atoms
  read_restart CPU = 0.060 seconds
include potential.mod
# NOTE: This script can be modified for different pair styles
# See in.elastic for more info.

# we must undefine any fix ave/* fix before using reset_timestep
if "$(is_defined(fix,avp))" then "unfix avp"
reset_timestep 0

# MTP potential
pair_style  nep
pair_coeff  * * nep_y2026_m09_d04_h13_m17_s19_generation300000.txt Mg Bi


# Setup neighbor style
neighbor 1.0 nsq
neigh_modify once no every 1 delay 0 check yes

# Setup output

fix avp all ave/time  ${nevery} ${nrepeat} ${nfreq} c_thermo_press mode vector
fix avp all ave/time  10 ${nrepeat} ${nfreq} c_thermo_press mode vector
fix avp all ave/time  10 10 ${nfreq} c_thermo_press mode vector
fix avp all ave/time  10 10 100 c_thermo_press mode vector
thermo		${nthermo}
thermo		100
thermo_style custom step temp pe press f_avp[1] f_avp[2] f_avp[3] f_avp[4] f_avp[5] f_avp[6]
thermo_modify norm no

# Setup MD

timestep ${timestep}
timestep 0.001
fix 4 all nve
if "${thermostat} == 1" then    "fix 5 all langevin ${temp} ${temp} ${tdamp} ${seed}"
fix 5 all langevin ${temp} ${temp} ${tdamp} ${seed}
fix 5 all langevin 600 ${temp} ${tdamp} ${seed}
fix 5 all langevin 600 600 ${tdamp} ${seed}
fix 5 all langevin 600 600 0.01 ${seed}
fix 5 all langevin 600 600 0.01 123457



# Positive deformation

variable delta equal ${up}*${len0}
variable delta equal 0.02*${len0}
variable delta equal 0.02*87.316633332
variable deltaxy equal ${up}*xy
variable deltaxy equal 0.02*xy
variable deltaxz equal ${up}*xz
variable deltaxz equal 0.02*xz
variable deltayz equal ${up}*yz
variable deltayz equal 0.02*yz
if "${dir} == 1" then    "change_box all x delta 0 ${delta} xy delta ${deltaxy} xz delta ${deltaxz} remap units box"
if "${dir} == 2" then    "change_box all y delta 0 ${delta} yz delta ${deltayz} remap units box"
if "${dir} == 3" then    "change_box all z delta 0 ${delta} remap units box"
if "${dir} == 4" then    "change_box all yz delta ${delta} remap units box"
if "${dir} == 5" then    "change_box all xz delta ${delta} remap units box"
change_box all xz delta ${delta} remap units box
change_box all xz delta 1.74633266664 remap units box
Changing box ...
  triclinic box = (0 0 0) to (69.064169 59.811324 87.316633) with tilt (-34.532084 1.7463327 0)
if "${dir} == 6" then    "change_box all xy delta ${delta} remap units box"

# Run MD

run ${nequil}
run 1000
Neighbor list info ...
  update every 1 steps, delay 0 steps, check yes
  max neighbors/atom: 2000, page size: 100000
  master list distance cutoff = 7
  ghost atom cutoff = 7
  1 neighbor lists, perpetual/occasional/extra = 1 0 0
  (1) pair nep, perpetual
      attributes: full, newton on
      pair build: full/nsq
      stencil: none
      bin: none
Per MPI rank memory allocation (min/avg/max) = 3.065 | 3.066 | 3.067 Mbytes
   Step          Temp          PotEng         Press         f_avp[1]       f_avp[2]       f_avp[3]       f_avp[4]       f_avp[5]       f_avp[6]   
         0   596.7845      -41195.87       13189.989      0              0              0              0              0              0            
       100   608.76449     -41180.941      13412.954      13571.127      13853.77       12295.807      356.1486      -4015.8927      71.112467    
       200   603.2576      -41187.187      13247.098      13692.89       13911.041      12345.982     -35.935365     -3702.0886      53.026021    
       300   607.49394     -41176.664      13416.12       13607.311      14011.203      12346.467     -3.4152356     -3651.5154      159.22428    
       400   603.76624     -41168.226      13422.277      13842.066      13909.698      12276.502     -189.89952     -3501.957       54.605682    
       500   605.0638      -41172.372      13286.765      13819.857      14044.826      12383.895     -478.54175     -3352.5742      119.8228     
       600   599.55692     -41167.771      13330.932      13787.766      14057.601      12166.524     -377.40176     -3387.5219     -2.6483293    
       700   597.2671      -41162.657      13304.844      13650.146      13957.573      12406.145     -434.32888     -3310.0427      2.8677351    
       800   603.02545     -41164.867      13329.384      13741.647      13944.259      12291.02      -504.31656     -3279.7771     -12.997201    
       900   607.51962     -41147.143      13485.003      13889.747      13884.759      12351.458     -667.47405     -3110.9257     -146.41868    
      1000   601.29927     -41145.183      13403.708      14209.315      13673.55       12475.74      -626.98809     -3002.6066     -319.53636    
Loop time of 15.657 on 48 procs for 1000 steps with 13500 atoms

Performance: 5.518 ns/day, 4.349 hours/ns, 63.869 timesteps/s
99.5% CPU use with 48 MPI tasks x no OpenMP threads

MPI task timing breakdown:
Section |  min time  |  avg time  |  max time  |%varavg| %total
---------------------------------------------------------------
Pair    | 12.739     | 13.835     | 15.056     |  17.5 | 88.36
Neigh   | 0.042058   | 0.046293   | 0.050829   |   1.3 |  0.30
Comm    | 0.26152    | 1.4555     | 2.6573     |  55.8 |  9.30
Output  | 0.00038971 | 0.00042332 | 0.0007409  |   0.0 |  0.00
Modify  | 0.036217   | 0.053145   | 0.073898   |   4.9 |  0.34
Other   |            | 0.2669     |            |       |  1.70

Nlocal:         281.25 ave         301 max         266 min
Histogram: 12 5 5 1 1 1 9 5 6 3
Nghost:         1263.9 ave        1296 max        1228 min
Histogram: 6 7 8 3 0 0 1 4 9 10
Neighs:              0 ave           0 max           0 min
Histogram: 48 0 0 0 0 0 0 0 0 0
FullNghs:      14349.2 ave       15392 max       13529 min
Histogram: 10 6 6 2 0 5 5 6 5 3

Total # of neighbors = 688764
Ave neighs/atom = 51.019556
Neighbor list builds = 23
Dangerous builds = 0
include potential.mod
# NOTE: This script can be modified for different pair styles
# See in.elastic for more info.

# we must undefine any fix ave/* fix before using reset_timestep
if "$(is_defined(fix,avp))" then "unfix avp"
unfix avp
reset_timestep 0

# MTP potential
pair_style  nep
pair_coeff  * * nep_y2026_m09_d04_h13_m17_s19_generation300000.txt Mg Bi


# Setup neighbor style
neighbor 1.0 nsq
neigh_modify once no every 1 delay 0 check yes

# Setup output

fix avp all ave/time  ${nevery} ${nrepeat} ${nfreq} c_thermo_press mode vector
fix avp all ave/time  10 ${nrepeat} ${nfreq} c_thermo_press mode vector
fix avp all ave/time  10 10 ${nfreq} c_thermo_press mode vector
fix avp all ave/time  10 10 100 c_thermo_press mode vector
thermo		${nthermo}
thermo		100
thermo_style custom step temp pe press f_avp[1] f_avp[2] f_avp[3] f_avp[4] f_avp[5] f_avp[6]
WARNING: New thermo_style command, previous thermo_modify settings will be lost (../output.cpp:896)
thermo_modify norm no

# Setup MD

timestep ${timestep}
timestep 0.001
fix 4 all nve
if "${thermostat} == 1" then    "fix 5 all langevin ${temp} ${temp} ${tdamp} ${seed}"
fix 5 all langevin ${temp} ${temp} ${tdamp} ${seed}
fix 5 all langevin 600 ${temp} ${tdamp} ${seed}
fix 5 all langevin 600 600 ${tdamp} ${seed}
fix 5 all langevin 600 600 0.01 ${seed}
fix 5 all langevin 600 600 0.01 123457


run ${nrun}
run 300
Per MPI rank memory allocation (min/avg/max) = 3.065 | 3.069 | 3.081 Mbytes
   Step          Temp          PotEng         Press         f_avp[1]       f_avp[2]       f_avp[3]       f_avp[4]       f_avp[5]       f_avp[6]   
         0   601.29927     -41145.183      13403.708      0              0              0              0              0              0            
       100   601.53737     -41150.642      13395.033      13815.742      13643.493      12559.383     -574.97571     -3042.6161     -205.23356    
       200   600.1459      -41136.656      13535.895      13620.626      14064.803      12733.197     -244.77865     -3193.2914      18.83108     
       300   603.9598      -41145.457      13460.633      13875.459      13981.605      12504.667     -378.941       -3095.5258     -109.69872    
Loop time of 4.65427 on 48 procs for 300 steps with 13500 atoms

Performance: 5.569 ns/day, 4.310 hours/ns, 64.457 timesteps/s
99.6% CPU use with 48 MPI tasks x no OpenMP threads

MPI task timing breakdown:
Section |  min time  |  avg time  |  max time  |%varavg| %total
---------------------------------------------------------------
Pair    | 3.7869     | 4.1513     | 4.5164     |   9.3 | 89.19
Neigh   | 0.012746   | 0.014176   | 0.01864    |   0.9 |  0.30
Comm    | 0.074266   | 0.41024    | 0.77828    |  28.3 |  8.81
Output  | 0.00015172 | 0.00015953 | 0.00019926 |   0.0 |  0.00
Modify  | 0.0054563  | 0.010409   | 0.017664   |   3.8 |  0.22
Other   |            | 0.068      |            |       |  1.46

Nlocal:         281.25 ave         301 max         263 min
Histogram: 2 7 12 3 0 1 7 9 5 2
Nghost:        1263.85 ave        1299 max        1228 min
Histogram: 2 6 14 2 0 0 3 9 9 3
Neighs:              0 ave           0 max           0 min
Histogram: 48 0 0 0 0 0 0 0 0 0
FullNghs:        14355 ave       15313 max       13407 min
Histogram: 2 9 9 4 0 1 4 9 6 4

Total # of neighbors = 689042
Ave neighs/atom = 51.040148
Neighbor list builds = 7
Dangerous builds = 0

# Obtain new stress tensor

variable pxx1 equal f_avp[1]
variable pyy1 equal f_avp[2]
variable pzz1 equal f_avp[3]
variable pxy1 equal f_avp[4]
variable pxz1 equal f_avp[5]
variable pyz1 equal f_avp[6]

# Compute elastic constant from pressure tensor

variable C1pos equal ${d1}
variable C1pos equal -3.2901826203005
variable C2pos equal ${d2}
variable C2pos equal -0.776022032137998
variable C3pos equal ${d3}
variable C3pos equal 0.243498886431998
variable C4pos equal ${d4}
variable C4pos equal 1.02544703284387
variable C5pos equal ${d5}
variable C5pos equal 15.8773379245196
variable C6pos equal ${d6}
variable C6pos equal 2.07996766143413

# Combine positive and negative

variable C1${dir} equal 0.5*(${C1neg}+${C1pos})
variable C15 equal 0.5*(${C1neg}+${C1pos})
variable C15 equal 0.5*(2.8073375363525+${C1pos})
variable C15 equal 0.5*(2.8073375363525+-3.2901826203005)
variable C2${dir} equal 0.5*(${C2neg}+${C2pos})
variable C25 equal 0.5*(${C2neg}+${C2pos})
variable C25 equal 0.5*(-0.00893711579649789+${C2pos})
variable C25 equal 0.5*(-0.00893711579649789+-0.776022032137998)
variable C3${dir} equal 0.5*(${C3neg}+${C3pos})
variable C35 equal 0.5*(${C3neg}+${C3pos})
variable C35 equal 0.5*(0.497748994939502+${C3pos})
variable C35 equal 0.5*(0.497748994939502+0.243498886431998)
variable C4${dir} equal 0.5*(${C4neg}+${C4pos})
variable C45 equal 0.5*(${C4neg}+${C4pos})
variable C45 equal 0.5*(-0.0834485424144955+${C4pos})
variable C45 equal 0.5*(-0.0834485424144955+1.02544703284387)
variable C5${dir} equal 0.5*(${C5neg}+${C5pos})
variable C55 equal 0.5*(${C5neg}+${C5pos})
variable C55 equal 0.5*(14.9432869896944+${C5pos})
variable C55 equal 0.5*(14.9432869896944+15.8773379245196)
variable C6${dir} equal 0.5*(${C6neg}+${C6pos})
variable C65 equal 0.5*(${C6neg}+${C6pos})
variable C65 equal 0.5*(2.55213453800336+${C6pos})
variable C65 equal 0.5*(2.55213453800336+2.07996766143413)

# Delete dir to make sure it is not reused

variable dir delete

# uxy Perturbation

variable dir equal 6
include displace.mod
# NOTE: This script should not need to be
# modified. See in.elastic for more info.
#
# Find which reference length to use

if "${dir} == 1" then    "variable len0 equal ${lx0}"
if "${dir} == 2" then    "variable len0 equal ${ly0}"
if "${dir} == 3" then    "variable len0 equal ${lz0}"
if "${dir} == 4" then    "variable len0 equal ${lz0}"
if "${dir} == 5" then    "variable len0 equal ${lz0}"
if "${dir} == 6" then    "variable len0 equal ${ly0}"
variable len0 equal ${ly0}
variable len0 equal 59.81132442

# Reset box and simulation parameters

clear
box tilt large
read_restart restart.equil
Reading restart file ...
  restart file = 24 Mar 2022, LAMMPS = 24 Mar 2022
  restoring atom style atomic from restart
  triclinic box = (0 0 0) to (69.064169 59.811324 87.316633) with tilt (-34.532084 0 0)
  4 by 3 by 4 MPI processor grid
  pair style nep stores no restart info
  13500 atoms
  read_restart CPU = 0.193 seconds
include potential.mod
# NOTE: This script can be modified for different pair styles
# See in.elastic for more info.

# we must undefine any fix ave/* fix before using reset_timestep
if "$(is_defined(fix,avp))" then "unfix avp"
reset_timestep 0

# MTP potential
pair_style  nep
pair_coeff  * * nep_y2026_m09_d04_h13_m17_s19_generation300000.txt Mg Bi


# Setup neighbor style
neighbor 1.0 nsq
neigh_modify once no every 1 delay 0 check yes

# Setup output

fix avp all ave/time  ${nevery} ${nrepeat} ${nfreq} c_thermo_press mode vector
fix avp all ave/time  10 ${nrepeat} ${nfreq} c_thermo_press mode vector
fix avp all ave/time  10 10 ${nfreq} c_thermo_press mode vector
fix avp all ave/time  10 10 100 c_thermo_press mode vector
thermo		${nthermo}
thermo		100
thermo_style custom step temp pe press f_avp[1] f_avp[2] f_avp[3] f_avp[4] f_avp[5] f_avp[6]
thermo_modify norm no

# Setup MD

timestep ${timestep}
timestep 0.001
fix 4 all nve
if "${thermostat} == 1" then    "fix 5 all langevin ${temp} ${temp} ${tdamp} ${seed}"
fix 5 all langevin ${temp} ${temp} ${tdamp} ${seed}
fix 5 all langevin 600 ${temp} ${tdamp} ${seed}
fix 5 all langevin 600 600 ${tdamp} ${seed}
fix 5 all langevin 600 600 0.01 ${seed}
fix 5 all langevin 600 600 0.01 123457



# Negative deformation

variable delta equal -${up}*${len0}
variable delta equal -0.02*${len0}
variable delta equal -0.02*59.81132442
variable deltaxy equal -${up}*xy
variable deltaxy equal -0.02*xy
variable deltaxz equal -${up}*xz
variable deltaxz equal -0.02*xz
variable deltayz equal -${up}*yz
variable deltayz equal -0.02*yz
if "${dir} == 1" then    "change_box all x delta 0 ${delta} xy delta ${deltaxy} xz delta ${deltaxz} remap units box"
if "${dir} == 2" then    "change_box all y delta 0 ${delta} yz delta ${deltayz} remap units box"
if "${dir} == 3" then    "change_box all z delta 0 ${delta} remap units box"
if "${dir} == 4" then    "change_box all yz delta ${delta} remap units box"
if "${dir} == 5" then    "change_box all xz delta ${delta} remap units box"
if "${dir} == 6" then    "change_box all xy delta ${delta} remap units box"
change_box all xy delta ${delta} remap units box
change_box all xy delta -1.1962264884 remap units box
Changing box ...
WARNING: Triclinic box skew is large (../domain.cpp:228)
  triclinic box = (0 0 0) to (69.064169 59.811324 87.316633) with tilt (-35.728311 0 0)

# Run MD

run ${nequil}
run 1000
Neighbor list info ...
  update every 1 steps, delay 0 steps, check yes
  max neighbors/atom: 2000, page size: 100000
  master list distance cutoff = 7
  ghost atom cutoff = 7
  1 neighbor lists, perpetual/occasional/extra = 1 0 0
  (1) pair nep, perpetual
      attributes: full, newton on
      pair build: full/nsq
      stencil: none
      bin: none
Per MPI rank memory allocation (min/avg/max) = 3.065 | 3.066 | 3.067 Mbytes
   Step          Temp          PotEng         Press         f_avp[1]       f_avp[2]       f_avp[3]       f_avp[4]       f_avp[5]       f_avp[6]   
         0   596.7845      -41194.612      13210.502      0              0              0              0              0              0            
       100   597.2123      -41186.221      13178.24       13445.821      13867.941      12176.463      3717.9847     -223.50139      7.9670398    
       200   593.45135     -41174.675      13380.032      13768.796      13698.884      12287.216      2994.3812      35.980677     -71.897559    
       300   603.06078     -41169.637      13521.973      13999.641      14188.941      12460.937      2507.7619      430.41933      92.570959    
       400   601.91973     -41167.672      13481.121      14068.058      14139.73       12404.788      2601.4408      382.17872      75.343545    
       500   594.70742     -41176.611      13094.853      13614.332      13860.384      12368.61       2479.5032      417.06504      161.90494    
       600   599.67285     -41161.627      13348.957      13664.218      13543.396      12416.049      2347.9674      567.82173     -17.919311    
       700   603.3648      -41156.314      13421.899      13732.379      14041.999      12481.012      2447.3666      524.33218      239.61256    
       800   592.44728     -41159.532      13267.61       13626.205      14046.962      12286.39       2180.1859      594.6154       242.99133    
       900   601.04411     -41147.929      13422.777      13804.522      13880.821      12435.197      2255.0566      441.35438      93.414993    
      1000   603.53208     -41159.01       13297.268      13702.498      13931.318      12330.081      2391.265       506.16251      100.90279    
Loop time of 15.4731 on 48 procs for 1000 steps with 13500 atoms

Performance: 5.584 ns/day, 4.298 hours/ns, 64.628 timesteps/s
99.6% CPU use with 48 MPI tasks x no OpenMP threads

MPI task timing breakdown:
Section |  min time  |  avg time  |  max time  |%varavg| %total
---------------------------------------------------------------
Pair    | 12.8       | 13.825     | 14.824     |  16.9 | 89.35
Neigh   | 0.042459   | 0.046417   | 0.050326   |   1.3 |  0.30
Comm    | 0.29503    | 1.3839     | 2.4995     |  55.2 |  8.94
Output  | 0.00039858 | 0.00042978 | 0.00057202 |   0.0 |  0.00
Modify  | 0.018446   | 0.04654    | 0.081055   |   9.7 |  0.30
Other   |            | 0.1709     |            |       |  1.10

Nlocal:         281.25 ave         300 max         263 min
Histogram: 3 10 8 2 1 1 5 7 7 4
Nghost:        1271.71 ave        1302 max        1243 min
Histogram: 6 10 6 2 0 1 1 12 5 5
Neighs:              0 ave           0 max           0 min
Histogram: 48 0 0 0 0 0 0 0 0 0
FullNghs:      14354.8 ave       15366 max       13369 min
Histogram: 3 6 11 4 0 2 5 4 9 4

Total # of neighbors = 689030
Ave neighs/atom = 51.039259
Neighbor list builds = 23
Dangerous builds = 0
include potential.mod
# NOTE: This script can be modified for different pair styles
# See in.elastic for more info.

# we must undefine any fix ave/* fix before using reset_timestep
if "$(is_defined(fix,avp))" then "unfix avp"
unfix avp
reset_timestep 0

# MTP potential
pair_style  nep
pair_coeff  * * nep_y2026_m09_d04_h13_m17_s19_generation300000.txt Mg Bi


# Setup neighbor style
neighbor 1.0 nsq
neigh_modify once no every 1 delay 0 check yes

# Setup output

fix avp all ave/time  ${nevery} ${nrepeat} ${nfreq} c_thermo_press mode vector
fix avp all ave/time  10 ${nrepeat} ${nfreq} c_thermo_press mode vector
fix avp all ave/time  10 10 ${nfreq} c_thermo_press mode vector
fix avp all ave/time  10 10 100 c_thermo_press mode vector
thermo		${nthermo}
thermo		100
thermo_style custom step temp pe press f_avp[1] f_avp[2] f_avp[3] f_avp[4] f_avp[5] f_avp[6]
WARNING: New thermo_style command, previous thermo_modify settings will be lost (../output.cpp:896)
thermo_modify norm no

# Setup MD

timestep ${timestep}
timestep 0.001
fix 4 all nve
if "${thermostat} == 1" then    "fix 5 all langevin ${temp} ${temp} ${tdamp} ${seed}"
fix 5 all langevin ${temp} ${temp} ${tdamp} ${seed}
fix 5 all langevin 600 ${temp} ${tdamp} ${seed}
fix 5 all langevin 600 600 ${tdamp} ${seed}
fix 5 all langevin 600 600 0.01 ${seed}
fix 5 all langevin 600 600 0.01 123457


run ${nrun}
run 300
Per MPI rank memory allocation (min/avg/max) = 3.065 | 3.068 | 3.074 Mbytes
   Step          Temp          PotEng         Press         f_avp[1]       f_avp[2]       f_avp[3]       f_avp[4]       f_avp[5]       f_avp[6]   
         0   603.53208     -41159.01       13297.268      0              0              0              0              0              0            
       100   598.59558     -41153.889      13428.208      13564.17       14146.883      12378.736      2597.0474      290.95582      199.80276    
       200   606.32993     -41147.125      13586.135      13740.546      14227.595      12588.947      2431.8442      367.27496      159.36301    
       300   604.07834     -41145.762      13609.221      14034.374      14328.492      12481.445      2376.513       509.30327      55.419467    
Loop time of 4.63985 on 48 procs for 300 steps with 13500 atoms

Performance: 5.586 ns/day, 4.296 hours/ns, 64.657 timesteps/s
99.6% CPU use with 48 MPI tasks x no OpenMP threads

MPI task timing breakdown:
Section |  min time  |  avg time  |  max time  |%varavg| %total
---------------------------------------------------------------
Pair    | 3.8118     | 4.1485     | 4.4551     |   8.9 | 89.41
Neigh   | 0.010965   | 0.012093   | 0.013184   |   0.6 |  0.26
Comm    | 0.094758   | 0.42086    | 0.74819    |  27.6 |  9.07
Output  | 0.00013018 | 0.00013821 | 0.0001831  |   0.0 |  0.00
Modify  | 0.0054651  | 0.0071724  | 0.011597   |   1.8 |  0.15
Other   |            | 0.05112    |            |       |  1.10

Nlocal:         281.25 ave         299 max         262 min
Histogram: 3 6 7 5 3 2 3 5 9 5
Nghost:         1272.1 ave        1306 max        1237 min
Histogram: 3 6 6 8 1 0 4 14 5 1
Neighs:              0 ave           0 max           0 min
Histogram: 48 0 0 0 0 0 0 0 0 0
FullNghs:      14367.8 ave       15401 max       13343 min
Histogram: 2 7 9 4 2 4 3 5 9 3

Total # of neighbors = 689652
Ave neighs/atom = 51.085333
Neighbor list builds = 6
Dangerous builds = 0

# Obtain new stress tensor

variable pxx1 equal f_avp[1]
variable pyy1 equal f_avp[2]
variable pzz1 equal f_avp[3]
variable pxy1 equal f_avp[4]
variable pxz1 equal f_avp[5]
variable pyz1 equal f_avp[6]

# Compute elastic constant from pressure tensor

variable C1neg equal ${d1}
variable C1neg equal 4.084757628345
variable C2neg equal ${d2}
variable C2neg equal 2.5104569324765
variable C3neg equal ${d3}
variable C3neg equal -0.359608725825001
variable C4neg equal ${d4}
variable C4neg equal -0.199856091522724
variable C5neg equal ${d5}
variable C5neg equal 2.14680743882372
variable C6neg equal ${d6}
variable C6neg equal 11.6973022543365

# Reset box and simulation parameters

clear
box tilt large
read_restart restart.equil
Reading restart file ...
  restart file = 24 Mar 2022, LAMMPS = 24 Mar 2022
  restoring atom style atomic from restart
  triclinic box = (0 0 0) to (69.064169 59.811324 87.316633) with tilt (-34.532084 0 0)
  4 by 3 by 4 MPI processor grid
  pair style nep stores no restart info
  13500 atoms
  read_restart CPU = 0.071 seconds
include potential.mod
# NOTE: This script can be modified for different pair styles
# See in.elastic for more info.

# we must undefine any fix ave/* fix before using reset_timestep
if "$(is_defined(fix,avp))" then "unfix avp"
reset_timestep 0

# MTP potential
pair_style  nep
pair_coeff  * * nep_y2026_m09_d04_h13_m17_s19_generation300000.txt Mg Bi


# Setup neighbor style
neighbor 1.0 nsq
neigh_modify once no every 1 delay 0 check yes

# Setup output

fix avp all ave/time  ${nevery} ${nrepeat} ${nfreq} c_thermo_press mode vector
fix avp all ave/time  10 ${nrepeat} ${nfreq} c_thermo_press mode vector
fix avp all ave/time  10 10 ${nfreq} c_thermo_press mode vector
fix avp all ave/time  10 10 100 c_thermo_press mode vector
thermo		${nthermo}
thermo		100
thermo_style custom step temp pe press f_avp[1] f_avp[2] f_avp[3] f_avp[4] f_avp[5] f_avp[6]
thermo_modify norm no

# Setup MD

timestep ${timestep}
timestep 0.001
fix 4 all nve
if "${thermostat} == 1" then    "fix 5 all langevin ${temp} ${temp} ${tdamp} ${seed}"
fix 5 all langevin ${temp} ${temp} ${tdamp} ${seed}
fix 5 all langevin 600 ${temp} ${tdamp} ${seed}
fix 5 all langevin 600 600 ${tdamp} ${seed}
fix 5 all langevin 600 600 0.01 ${seed}
fix 5 all langevin 600 600 0.01 123457



# Positive deformation

variable delta equal ${up}*${len0}
variable delta equal 0.02*${len0}
variable delta equal 0.02*59.81132442
variable deltaxy equal ${up}*xy
variable deltaxy equal 0.02*xy
variable deltaxz equal ${up}*xz
variable deltaxz equal 0.02*xz
variable deltayz equal ${up}*yz
variable deltayz equal 0.02*yz
if "${dir} == 1" then    "change_box all x delta 0 ${delta} xy delta ${deltaxy} xz delta ${deltaxz} remap units box"
if "${dir} == 2" then    "change_box all y delta 0 ${delta} yz delta ${deltayz} remap units box"
if "${dir} == 3" then    "change_box all z delta 0 ${delta} remap units box"
if "${dir} == 4" then    "change_box all yz delta ${delta} remap units box"
if "${dir} == 5" then    "change_box all xz delta ${delta} remap units box"
if "${dir} == 6" then    "change_box all xy delta ${delta} remap units box"
change_box all xy delta ${delta} remap units box
change_box all xy delta 1.1962264884 remap units box
Changing box ...
  triclinic box = (0 0 0) to (69.064169 59.811324 87.316633) with tilt (-33.335858 0 0)

# Run MD

run ${nequil}
run 1000
Neighbor list info ...
  update every 1 steps, delay 0 steps, check yes
  max neighbors/atom: 2000, page size: 100000
  master list distance cutoff = 7
  ghost atom cutoff = 7
  1 neighbor lists, perpetual/occasional/extra = 1 0 0
  (1) pair nep, perpetual
      attributes: full, newton on
      pair build: full/nsq
      stencil: none
      bin: none
Per MPI rank memory allocation (min/avg/max) = 3.065 | 3.066 | 3.067 Mbytes
   Step          Temp          PotEng         Press         f_avp[1]       f_avp[2]       f_avp[3]       f_avp[4]       f_avp[5]       f_avp[6]   
         0   596.7845      -41193.961      13216.526      0              0              0              0              0              0            
       100   599.34328     -41187.58       13247.975      13485.393      13917.407      12208.915     -3749.06        454.15389     -16.492191    
       200   604.7119      -41190.043      13303.768      13506.401      14120.185      12080.283     -2659.4715     -214.6502       51.577195    
       300   609.59747     -41175.508      13416.444      13477.656      14151.439      12289.116     -2387.3829     -311.23821      51.424714    
       400   596.94121     -41186.95       13106.912      13514.168      14098.351      12204.322     -2319.5497     -355.84911      7.7308369    
       500   600.63887     -41161.504      13340.2        13658.11       14003.161      12036.732     -2249.5242     -324.94949     -17.107274    
       600   594.57463     -41166.205      13194.62       13370.799      14303.859      12091.927     -2412.0997     -220.09727      117.37083    
       700   599.95081     -41160.491      13318.195      13465.529      13921.505      12420.416     -2307.7447     -326.14562      51.674881    
       800   598.44064     -41151.62       13397.362      13695.685      13942.098      12555.252     -2280.3013     -349.80726      6.7044577    
       900   600.66188     -41155.665      13270.089      13700.575      13840.789      12411.756     -2620.9902     -69.786262     -76.561988    
      1000   602.16788     -41152.44       13360.995      13562.536      14060.034      12292.358     -2413.6506     -216.691        146.83995    
Loop time of 15.4368 on 48 procs for 1000 steps with 13500 atoms

Performance: 5.597 ns/day, 4.288 hours/ns, 64.780 timesteps/s
99.6% CPU use with 48 MPI tasks x no OpenMP threads

MPI task timing breakdown:
Section |  min time  |  avg time  |  max time  |%varavg| %total
---------------------------------------------------------------
Pair    | 12.751     | 13.822     | 14.951     |  16.7 | 89.54
Neigh   | 0.042041   | 0.046168   | 0.050108   |   1.3 |  0.30
Comm    | 0.27018    | 1.3284     | 2.2864     |  51.2 |  8.61
Output  | 0.00042245 | 0.00044158 | 0.00060512 |   0.0 |  0.00
Modify  | 0.018496   | 0.037022   | 0.065406   |   7.8 |  0.24
Other   |            | 0.2028     |            |       |  1.31

Nlocal:         281.25 ave         296 max         264 min
Histogram: 3 8 7 4 2 2 2 3 4 13
Nghost:        1260.71 ave        1296 max        1225 min
Histogram: 7 12 5 0 0 0 0 4 14 6
Neighs:              0 ave           0 max           0 min
Histogram: 48 0 0 0 0 0 0 0 0 0
FullNghs:      14361.5 ave       15260 max       13446 min
Histogram: 2 7 11 4 0 2 4 4 11 3

Total # of neighbors = 689350
Ave neighs/atom = 51.062963
Neighbor list builds = 23
Dangerous builds = 0
include potential.mod
# NOTE: This script can be modified for different pair styles
# See in.elastic for more info.

# we must undefine any fix ave/* fix before using reset_timestep
if "$(is_defined(fix,avp))" then "unfix avp"
unfix avp
reset_timestep 0

# MTP potential
pair_style  nep
pair_coeff  * * nep_y2026_m09_d04_h13_m17_s19_generation300000.txt Mg Bi


# Setup neighbor style
neighbor 1.0 nsq
neigh_modify once no every 1 delay 0 check yes

# Setup output

fix avp all ave/time  ${nevery} ${nrepeat} ${nfreq} c_thermo_press mode vector
fix avp all ave/time  10 ${nrepeat} ${nfreq} c_thermo_press mode vector
fix avp all ave/time  10 10 ${nfreq} c_thermo_press mode vector
fix avp all ave/time  10 10 100 c_thermo_press mode vector
thermo		${nthermo}
thermo		100
thermo_style custom step temp pe press f_avp[1] f_avp[2] f_avp[3] f_avp[4] f_avp[5] f_avp[6]
WARNING: New thermo_style command, previous thermo_modify settings will be lost (../output.cpp:896)
thermo_modify norm no

# Setup MD

timestep ${timestep}
timestep 0.001
fix 4 all nve
if "${thermostat} == 1" then    "fix 5 all langevin ${temp} ${temp} ${tdamp} ${seed}"
fix 5 all langevin ${temp} ${temp} ${tdamp} ${seed}
fix 5 all langevin 600 ${temp} ${tdamp} ${seed}
fix 5 all langevin 600 600 ${tdamp} ${seed}
fix 5 all langevin 600 600 0.01 ${seed}
fix 5 all langevin 600 600 0.01 123457


run ${nrun}
run 300
Per MPI rank memory allocation (min/avg/max) = 3.065 | 3.068 | 3.074 Mbytes
   Step          Temp          PotEng         Press         f_avp[1]       f_avp[2]       f_avp[3]       f_avp[4]       f_avp[5]       f_avp[6]   
         0   602.16788     -41152.44       13360.995      0              0              0              0              0              0            
       100   606.63507     -41142.332      13268.962      13507.685      13990.763      12167.038     -2299.1984     -268.66335      117.18817    
       200   596.66187     -41135.245      13373.568      13724.533      13873.23       12336.927     -2348.0311     -273.05775     -12.304374    
       300   599.95678     -41130.032      13435.033      13653.527      14165.276      12492.092     -2169.804      -418.78286      158.10273    
Loop time of 4.64931 on 48 procs for 300 steps with 13500 atoms

Performance: 5.575 ns/day, 4.305 hours/ns, 64.526 timesteps/s
99.6% CPU use with 48 MPI tasks x no OpenMP threads

MPI task timing breakdown:
Section |  min time  |  avg time  |  max time  |%varavg| %total
---------------------------------------------------------------
Pair    | 3.8421     | 4.153      | 4.4855     |   9.3 | 89.32
Neigh   | 0.012793   | 0.014046   | 0.015417   |   0.7 |  0.30
Comm    | 0.080675   | 0.41932    | 0.75644    |  29.5 |  9.02
Output  | 0.00011535 | 0.00012558 | 0.00016511 |   0.0 |  0.00
Modify  | 0.0055703  | 0.0081423  | 0.013918   |   2.3 |  0.18
Other   |            | 0.05472    |            |       |  1.18

Nlocal:         281.25 ave         296 max         262 min
Histogram: 1 5 9 4 4 0 2 5 10 8
Nghost:         1261.4 ave        1293 max        1227 min
Histogram: 3 15 5 1 0 0 0 3 12 9
Neighs:              0 ave           0 max           0 min
Histogram: 48 0 0 0 0 0 0 0 0 0
FullNghs:      14375.7 ave       15263 max       13270 min
Histogram: 1 7 4 7 4 0 3 7 12 3

Total # of neighbors = 690034
Ave neighs/atom = 51.11363
Neighbor list builds = 7
Dangerous builds = 0

# Obtain new stress tensor

variable pxx1 equal f_avp[1]
variable pyy1 equal f_avp[2]
variable pzz1 equal f_avp[3]
variable pxy1 equal f_avp[4]
variable pxz1 equal f_avp[5]
variable pyz1 equal f_avp[6]

# Compute elastic constant from pressure tensor

variable C1pos equal ${d1}
variable C1pos equal -2.1805245118615
variable C2pos equal ${d2}
variable C2pos equal -1.694380788145
variable C3pos equal ${d3}
variable C3pos equal 0.306374408870006
variable C4pos equal ${d4}
variable C4pos equal -0.313560223250888
variable C5pos equal ${d5}
variable C5pos equal 2.49362317208171
variable C6pos equal ${d6}
variable C6pos equal 11.0342827801171

# Combine positive and negative

variable C1${dir} equal 0.5*(${C1neg}+${C1pos})
variable C16 equal 0.5*(${C1neg}+${C1pos})
variable C16 equal 0.5*(4.084757628345+${C1pos})
variable C16 equal 0.5*(4.084757628345+-2.1805245118615)
variable C2${dir} equal 0.5*(${C2neg}+${C2pos})
variable C26 equal 0.5*(${C2neg}+${C2pos})
variable C26 equal 0.5*(2.5104569324765+${C2pos})
variable C26 equal 0.5*(2.5104569324765+-1.694380788145)
variable C3${dir} equal 0.5*(${C3neg}+${C3pos})
variable C36 equal 0.5*(${C3neg}+${C3pos})
variable C36 equal 0.5*(-0.359608725825001+${C3pos})
variable C36 equal 0.5*(-0.359608725825001+0.306374408870006)
variable C4${dir} equal 0.5*(${C4neg}+${C4pos})
variable C46 equal 0.5*(${C4neg}+${C4pos})
variable C46 equal 0.5*(-0.199856091522724+${C4pos})
variable C46 equal 0.5*(-0.199856091522724+-0.313560223250888)
variable C5${dir} equal 0.5*(${C5neg}+${C5pos})
variable C56 equal 0.5*(${C5neg}+${C5pos})
variable C56 equal 0.5*(2.14680743882372+${C5pos})
variable C56 equal 0.5*(2.14680743882372+2.49362317208171)
variable C6${dir} equal 0.5*(${C6neg}+${C6pos})
variable C66 equal 0.5*(${C6neg}+${C6pos})
variable C66 equal 0.5*(11.6973022543365+${C6pos})
variable C66 equal 0.5*(11.6973022543365+11.0342827801171)

# Delete dir to make sure it is not reused

variable dir delete

# Output final values

variable C11all equal ${C11}
variable C11all equal 60.7206346214026
variable C22all equal ${C22}
variable C22all equal 60.377163962924
variable C33all equal ${C33}
variable C33all equal 68.6154517595376

variable C12all equal 0.5*(${C12}+${C21})
variable C12all equal 0.5*(37.6801668454039+${C21})
variable C12all equal 0.5*(37.6801668454039+38.4602441990847)
variable C13all equal 0.5*(${C13}+${C31})
variable C13all equal 0.5*(26.5626809734536+${C31})
variable C13all equal 0.5*(26.5626809734536+26.8776485597189)
variable C23all equal 0.5*(${C23}+${C32})
variable C23all equal 0.5*(28.464862923872+${C32})
variable C23all equal 0.5*(28.464862923872+27.5887576023488)

variable C44all equal ${C44}
variable C44all equal 16.2642861737218
variable C55all equal ${C55}
variable C55all equal 15.410312457107
variable C66all equal ${C66}
variable C66all equal 11.3657925172268

variable C14all equal 0.5*(${C14}+${C41})
variable C14all equal 0.5*(1.02632470196375+${C41})
variable C14all equal 0.5*(1.02632470196375+2.31815395344183)
variable C15all equal 0.5*(${C15}+${C51})
variable C15all equal 0.5*(-0.241422541974+${C51})
variable C15all equal 0.5*(-0.241422541974+0.40503866602472)
variable C16all equal 0.5*(${C16}+${C61})
variable C16all equal 0.5*(0.95211655824175+${C61})
variable C16all equal 0.5*(0.95211655824175+-0.287505506279578)

variable C24all equal 0.5*(${C24}+${C42})
variable C24all equal 0.5*(-2.2173884388415+${C42})
variable C24all equal 0.5*(-2.2173884388415+-1.56626611662466)
variable C25all equal 0.5*(${C25}+${C52})
variable C25all equal 0.5*(-0.392479573967248+${C52})
variable C25all equal 0.5*(-0.392479573967248+-0.131355223772226)
variable C26all equal 0.5*(${C26}+${C62})
variable C26all equal 0.5*(0.40803807216575+${C62})
variable C26all equal 0.5*(0.40803807216575+0.218810442236756)

variable C34all equal 0.5*(${C34}+${C43})
variable C34all equal 0.5*(0.416145727097501+${C43})
variable C34all equal 0.5*(0.416145727097501+-0.0858022105963973)
variable C35all equal 0.5*(${C35}+${C53})
variable C35all equal 0.5*(0.37062394068575+${C53})
variable C35all equal 0.5*(0.37062394068575+-0.149731483047577)
variable C36all equal 0.5*(${C36}+${C63})
variable C36all equal 0.5*(-0.0266171584774975+${C63})
variable C36all equal 0.5*(-0.0266171584774975+0.137556449323015)

variable C45all equal 0.5*(${C45}+${C54})
variable C45all equal 0.5*(0.470999245214687+${C54})
variable C45all equal 0.5*(0.470999245214687+-0.55941769554883)
variable C46all equal 0.5*(${C46}+${C64})
variable C46all equal 0.5*(-0.256708157386806+${C64})
variable C46all equal 0.5*(-0.256708157386806+-0.180508201486501)
variable C56all equal 0.5*(${C56}+${C65})
variable C56all equal 0.5*(2.32021530545271+${C65})
variable C56all equal 0.5*(2.32021530545271+2.31605109971875)

# Average moduli for cubic crystals

variable C11cubic equal (${C11all}+${C22all}+${C33all})/3.0
variable C11cubic equal (60.7206346214026+${C22all}+${C33all})/3.0
variable C11cubic equal (60.7206346214026+60.377163962924+${C33all})/3.0
variable C11cubic equal (60.7206346214026+60.377163962924+68.6154517595376)/3.0
variable C12cubic equal (${C12all}+${C13all}+${C23all})/3.0
variable C12cubic equal (38.0702055222443+${C13all}+${C23all})/3.0
variable C12cubic equal (38.0702055222443+26.7201647665863+${C23all})/3.0
variable C12cubic equal (38.0702055222443+26.7201647665863+28.0268102631104)/3.0
variable C44cubic equal (${C44all}+${C55all}+${C66all})/3.0
variable C44cubic equal (16.2642861737218+${C55all}+${C66all})/3.0
variable C44cubic equal (16.2642861737218+15.410312457107+${C66all})/3.0
variable C44cubic equal (16.2642861737218+15.410312457107+11.3657925172268)/3.0

variable bulkmodulus equal (${C11cubic}+2*${C12cubic})/3.0
variable bulkmodulus equal (63.2377501146214+2*${C12cubic})/3.0
variable bulkmodulus equal (63.2377501146214+2*30.9390601839803)/3.0
variable shearmodulus1 equal ${C44cubic}
variable shearmodulus1 equal 14.3467970493519
variable shearmodulus2 equal (${C11cubic}-${C12cubic})/2.0
variable shearmodulus2 equal (63.2377501146214-${C12cubic})/2.0
variable shearmodulus2 equal (63.2377501146214-30.9390601839803)/2.0
variable poissonratio equal 1.0/(1.0+${C11cubic}/${C12cubic})
variable poissonratio equal 1.0/(1.0+63.2377501146214/${C12cubic})
variable poissonratio equal 1.0/(1.0+63.2377501146214/30.9390601839803)

# For Stillinger-Weber silicon, the analytical results
# are known to be (E. R. Cowley, 1988):
#               C11 = 151.4 GPa
#               C12 = 76.4 GPa
#               C44 = 56.4 GPa

print "========================================="
=========================================
print "Components of the Elastic Constant Tensor"
Components of the Elastic Constant Tensor
print "========================================="
=========================================

print "Elastic Constant C11all = ${C11all} ${cunits}"
Elastic Constant C11all = 60.7206346214026 GPa
print "Elastic Constant C22all = ${C22all} ${cunits}"
Elastic Constant C22all = 60.377163962924 GPa
print "Elastic Constant C33all = ${C33all} ${cunits}"
Elastic Constant C33all = 68.6154517595376 GPa

print "Elastic Constant C12all = ${C12all} ${cunits}"
Elastic Constant C12all = 38.0702055222443 GPa
print "Elastic Constant C13all = ${C13all} ${cunits}"
Elastic Constant C13all = 26.7201647665863 GPa
print "Elastic Constant C23all = ${C23all} ${cunits}"
Elastic Constant C23all = 28.0268102631104 GPa

print "Elastic Constant C44all = ${C44all} ${cunits}"
Elastic Constant C44all = 16.2642861737218 GPa
print "Elastic Constant C55all = ${C55all} ${cunits}"
Elastic Constant C55all = 15.410312457107 GPa
print "Elastic Constant C66all = ${C66all} ${cunits}"
Elastic Constant C66all = 11.3657925172268 GPa

print "Elastic Constant C14all = ${C14all} ${cunits}"
Elastic Constant C14all = 1.67223932770279 GPa
print "Elastic Constant C15all = ${C15all} ${cunits}"
Elastic Constant C15all = 0.08180806202536 GPa
print "Elastic Constant C16all = ${C16all} ${cunits}"
Elastic Constant C16all = 0.332305525981086 GPa

print "Elastic Constant C24all = ${C24all} ${cunits}"
Elastic Constant C24all = -1.89182727773308 GPa
print "Elastic Constant C25all = ${C25all} ${cunits}"
Elastic Constant C25all = -0.261917398869737 GPa
print "Elastic Constant C26all = ${C26all} ${cunits}"
Elastic Constant C26all = 0.313424257201253 GPa

print "Elastic Constant C34all = ${C34all} ${cunits}"
Elastic Constant C34all = 0.165171758250552 GPa
print "Elastic Constant C35all = ${C35all} ${cunits}"
Elastic Constant C35all = 0.110446228819087 GPa
print "Elastic Constant C36all = ${C36all} ${cunits}"
Elastic Constant C36all = 0.0554696454227587 GPa

print "Elastic Constant C45all = ${C45all} ${cunits}"
Elastic Constant C45all = -0.0442092251670715 GPa
print "Elastic Constant C46all = ${C46all} ${cunits}"
Elastic Constant C46all = -0.218608179436654 GPa
print "Elastic Constant C56all = ${C56all} ${cunits}"
Elastic Constant C56all = 2.31813320258573 GPa

print "========================================="
=========================================
print "Average properties for a cubic crystal"
Average properties for a cubic crystal
print "========================================="
=========================================

print "Bulk Modulus = ${bulkmodulus} ${cunits}"
Bulk Modulus = 41.7052901608607 GPa
print "Shear Modulus 1 = ${shearmodulus1} ${cunits}"
Shear Modulus 1 = 14.3467970493519 GPa
print "Shear Modulus 2 = ${shearmodulus2} ${cunits}"
Shear Modulus 2 = 16.1493449653206 GPa
print "Poisson Ratio = ${poissonratio}"
Poisson Ratio = 0.328521003056733
Total wall time: 0:04:29
